10125
14.739334 14.739334 14.739334
H 2.577712 3.730039 6.478432 9.035155 9.462978 0.054147 0.062500 10.783000
O 2.685144 3.435957 6.412296 -1.286133 0.795958 -1.092662 1.000000 -21.566000
H 2.997735 3.391646 6.506016 -5.520228 -1.880596 -8.630293 0.062500 10.783000
H 2.784757 0.997407 13.370126 2.219001 3.693198 3.959043 0.062500 10.783000
O 2.862354 1.294570 13.443199 -1.609698 4.290021 -0.625691 1.000000 -21.566000
H 2.626443 1.397125 13.629719 0.041342 8.717585 -1.308523 0.062500 10.783000
H 6.520845 2.616839 5.543767 -3.204033 1.378494 2.496122 0.062500 10.783000
O 6.312512 2.556530 5.783739 -1.180735 0.797038 0.230739 1.000000 -21.566000
H 6.450210 2.340183 5.980029 -10.276340 -5.319217 7.345583 0.062500 10.783000
H 10.325514 11.732718 9.684224 -2.350049 -2.904711 -9.445358 0.062500 10.783000
O 10.623743 11.589731 9.725977 1.036740 -0.835534 -1.722605 1.000000 -21.566000
H 10.822362 11.759770 9.519812 6.397702 2.908069 0.776193 0.062500 10.783000
H 10.344654 6.530435 2.932119 3.703628 3.577575 -0.134303 0.062500 10.783000
O 10.429558 6.390380 3.210686 2.633643 -2.880384 1.805028 1.000000 -21.566000
H 10.717005 6.271185 3.154072 -0.540588 -11.918075 6.649802 0.062500 10.783000
H 6.923574 7.605834 4.372899 8.246686 1.560865 -1.323277 0.062500 10.783000
O 6.913706 7.908329 4.249549 -3.481743 -1.192926 -3.216412 1.000000 -21.566000
H 6.625626 8.024210 4.364414 -6.077816 -4.620558 -17.496795 0.062500 10.783000
H 14.426022 2.384322 8.165199 3.160819 5.921010 -1.028387 0.062500 10.783000
O 14.120415 2.484547 8.209687 -3.189544 5.087285 1.181684 1.000000 -21.566000
H 14.067088 2.790785 8.123557 12.183680 -2.036159 2.373842 0.062500 10.783000
H 11.880729 4.362633 6.092617 0.666219 -7.596557 -7.811791 0.062500 10.783000
O 11.958031 4.630011 5.924447 -0.057334 2.754196 -0.789466 1.000000 -21.566000
H 11.907389 4.838618 6.142863 1.937383 -1.953626 5.745977 0.062500 10.783000
H 13.086803 5.389315 9.071347 7.081790 -10.431279 -9.929125 0.062500 10.783000
O 13.170639 5.107613 9.203115 0.255520 2.307509 -1.728901 1.000000 -21.566000
H 13.105963 4.882425 8.980658 10.288407 4.047097 1.413591 0.062500 10.783000
H 13.816837 3.221242 5.832802 1.602940 1.477636 -0.986887 0.062500 10.783000
O 13.519886 3.327702 5.889445 4.190748 1.327788 0.191194 1.000000 -21.566000
H 13.404947 3.130882 6.101698 23.826891 3.335783 0.671729 0.062500 10.783000
H 10.249639 6.095990 8.258849 3.873997 3.510995 0.045486 0.062500 10.783000
O 10.489911 5.925595 8.120594 2.552698 3.256024 0.672663 1.000000 -21.566000
H 10.527391 6.005480 7.820024 7.497113 -0.438462 7.455525 0.062500 10.783000
H 0.399888 2.715888 8.682986 1.427849 3.882089 5.031434 0.062500 10.783000
O 0.642773 2.874594 8.542130 -1.803361 -1.342568 -2.231544 1.000000 -21.566000
H 0.600238 3.188445 8.533288 -2.648105 0.214870 8.177561 0.062500 10.783000
H 0.759264 3.225488 14.600824 -5.597786 -22.119254 -7.658348 0.062500 10.783000
O 0.642773 3.206771 14.304536 -0.829101 -2.669180 0.025837 1.000000 -21.566000
H 0.344950 3.337542 14.321147 5.234091 3.613791 4.341385 0.062500 10.783000
H 1.719750 6.781234 6.908790 3.966310 2.478647 0.116780 0.062500 10.783000
O 1.754079 6.974469 6.664682 -1.857109 1.312186 1.958893 1.000000 -21.566000
H 1.713353 6.776262 6.409310 3.802551 5.217139 -3.726749 0.062500 10.783000
H 6.531053 6.751954 3.664074 -0.325832 -6.196170 -3.770469 0.062500 10.783000
O 6.464446 7.049443 3.756173 2.643316 -0.308479 -1.930562 1.000000 -21.566000
H 6.582717 7.237847 3.522933 3.741721 11.180038 -3.771170 0.062500 10.783000
H 1.911460 8.272768 5.452888 10.652249 11.999688 15.444838 0.062500 10.783000
O 2.073478 7.997127 5.346221 -0.638610 -1.772838 -1.924075 1.000000 -21.566000
H 1.962488 7.884658 5.068555 4.343199 1.504576 4.687654 0.062500 10.783000
H 2.606115 2.911494 2.942945 -2.799359 0.568868 -5.166980 0.062500 10.783000
O 2.622706 2.815908 3.248116 1.467377 0.621215 -0.252890 1.000000 -21.566000
H 2.927416 2.786570 3.309457 -6.750932 -4.315514 -4.168995 0.062500 10.783000
H 3.753776 4.605560 4.550482 -13.729078 -6.707067 -10.275339 0.062500 10.783000
O 3.765982 4.375714 4.797070 1.890004 0.051617 2.769330 1.000000 -21.566000
H 3.546083 4.160345 4.733946 3.781412 2.060600 -1.084668 0.062500 10.783000
H 3.121564 7.462201 7.861803 -6.545894 -7.797592 9.760318 0.062500 10.783000
O 3.224174 7.627731 8.131585 3.074891 -1.084170 0.773898 1.000000 -21.566000
H 3.512179 7.723707 8.060906 -4.200741 6.382085 -3.565476 0.062500 10.783000
H 4.115406 6.849360 3.078610 0.852793 13.349704 -11.525116 0.062500 10.783000
O 4.368543 6.670471 3.184980 1.577870 -3.336208 1.754133 1.000000 -21.566000
H 4.519861 6.569228 2.910895 -9.256392 10.002437 -21.592274 0.062500 10.783000
H 9.962291 6.017023 3.983155 -0.365848 8.539729 10.511422 0.062500 10.783000
O 9.908075 6.313373 3.868602 -2.490433 -0.297431 0.194272 1.000000 -21.566000
H 10.136356 6.347503 3.628720 -6.488193 5.913093 11.408966 0.062500 10.783000
H 11.140530 8.635405 5.380679 -4.896159 -2.261021 6.652054 0.062500 10.783000
O 10.822396 8.649375 5.302711 1.423668 -2.770996 1.326287 1.000000 -21.566000
H 10.645346 8.721406 5.576248 5.166987 4.314356 -19.257748 0.062500 10.783000
H 10.790678 4.468804 8.220564 -5.130185 -4.190150 5.864893 0.062500 10.783000
O 10.834454 4.158385 8.276201 1.376871 2.804427 -3.414815 1.000000 -21.566000
H 10.817921 4.008248 8.000223 3.360321 2.505733 2.218771 0.062500 10.783000
H 12.524880 4.604056 8.291332 6.678503 -0.891995 -10.612614 0.062500 10.783000
O 12.614467 4.540075 8.601359 2.877820 -0.803755 0.462112 1.000000 -21.566000
H 12.373503 4.437823 8.764578 7.950644 -2.868295 1.170580 0.062500 10.783000
H 12.911858 6.515245 9.826705 -12.285380 -8.817706 17.095607 0.062500 10.783000
O 13.217590 6.432344 9.894325 -2.097585 2.085150 2.024254 1.000000 -21.566000
H 13.377098 6.707316 9.853077 5.602059 -1.732083 4.660946 0.062500 10.783000
H 9.805927 8.889095 2.044315 7.340145 10.766859 -1.963931 0.062500 10.783000
O 9.604753 8.924652 1.790708 -0.159347 0.765399 2.508958 1.000000 -21.566000
H 9.445779 9.201560 1.790039 5.625655 2.798816 -3.021246 0.062500 10.783000
H 14.026706 5.352831 3.638184 6.192653 9.367815 -8.683882 0.062500 10.783000
O 14.324229 5.235550 3.659216 1.522423 1.201179 -0.003003 1.000000 -21.566000
H 14.539708 5.448660 3.749363 -0.295585 -5.400296 -2.349881 0.062500 10.783000
H 6.618113 4.933796 5.043615 -2.335393 -10.574387 -3.265999 0.062500 10.783000
O 6.755276 5.007494 5.319646 -1.517695 -3.149873 1.824464 1.000000 -21.566000
H 7.014523 4.820298 5.351515 -4.228813 -2.721443 -3.733581 0.062500 10.783000
H 1.705339 8.711421 6.800503 0.551674 4.082739 2.434950 0.062500 10.783000
O 1.413984 8.661854 6.920600 1.766944 -0.347800 1.868907 1.000000 -21.566000
H 1.399277 8.345866 6.976482 -5.254153 1.914839 -11.719460 0.062500 10.783000
H 3.722869 3.208952 6.609214 -0.178506 5.374947 18.146764 0.062500 10.783000
O 3.479320 3.142679 6.809605 -0.266711 -0.979298 -0.885734 1.000000 -21.566000
H 3.561758 3.221844 7.102481 -7.537463 10.221930 -1.658695 0.062500 10.783000
H 1.839005 7.535379 8.072530 -1.530584 -1.077791 17.781818 0.062500 10.783000
O 1.706363 7.825516 8.084903 -0.268870 -1.677542 1.989815 1.000000 -21.566000
H 1.686329 7.981346 7.809053 -10.599878 3.005460 -3.103027 0.062500 10.783000
H 4.901851 5.360017 0.776807 13.050342 -10.142856 -8.353731 0.062500 10.783000
O 4.997729 5.278525 0.483932 3.428838 0.530503 -0.640129 1.000000 -21.566000
H 5.106168 5.531252 0.317544 5.132635 4.829319 -2.791909 0.062500 10.783000
H 3.335273 11.271495 8.619404 -12.151535 -1.236421 -2.836101 0.062500 10.783000
O 3.285961 11.163744 8.321085 1.285298 -4.673071 -0.184376 1.000000 -21.566000
H 3.267057 11.425013 8.132537 -10.835832 0.094019 -3.213080 0.062500 10.783000
H 9.537622 8.878466 0.573988 -1.938019 10.030952 -3.033036 0.062500 10.783000
O 9.315785 9.092477 0.538770 1.618402 1.110805 -0.620198 1.000000 -21.566000
H 9.019504 8.956287 0.546483 1.958735 -3.540474 -7.825047 0.062500 10.783000
H 9.803642 5.643184 3.544260 2.785719 -1.191555 1.738818 0.062500 10.783000
O 9.723930 5.572703 3.255308 5.404989 -1.235841 -1.176170 1.000000 -21.566000
H 9.680145 5.256628 3.266221 4.440622 -3.948484 0.262415 0.062500 10.783000
H 9.071325 7.348593 6.755614 7.690569 -3.473749 -2.096499 0.062500 10.783000
O 9.224269 7.263630 7.018230 3.170744 -2.827722 -0.209804 1.000000 -21.566000
H 9.367694 7.532876 7.120378 3.156630 10.096289 4.788321 0.062500 10.783000
H 14.350763 9.679611 11.136564 7.727446 -4.909440 -4.526831 0.062500 10.783000
O 14.417304 9.986863 11.261365 1.230662 -0.089991 3.196794 1.000000 -21.566000
H 14.199395 10.218610 11.236130 -6.556443 -9.377239 -14.734303 0.062500 10.783000
H 9.884987 5.875527 5.441370 8.273909 -1.882668 6.753493 0.062500 10.783000
O 9.836455 5.895885 5.757934 -0.447097 -0.486011 -2.280179 1.000000 -21.566000
H 9.638597 6.147885 5.832076 5.039131 6.111593 -5.294994 0.062500 10.783000
H 0.110398 5.081420 14.231243 0.348319 -15.574408 4.415846 0.062500 10.783000
O 0.128920 4.912467 13.969153 -1.966906 -0.756981 0.766099 1.000000 -21.566000
H 0.319723 4.672285 14.040455 -0.464047 -3.601336 -0.164494 0.062500 10.783000
H 13.774761 7.610537 5.783320 -0.203497 -11.598438 3.579576 0.062500 10.783000
O 13.755984 7.380835 5.554249 -4.329808 0.158642 -2.781798 1.000000 -21.566000
H 13.883373 7.485920 5.276216 -6.743559 4.459126 -8.194994 0.062500 10.783000
H 3.037705 8.351281 5.076563 0.301886 -12.584843 -2.984505 0.062500 10.783000
O 2.802245 8.191992 4.929195 1.243938 1.102191 2.562744 1.000000 -21.566000
H 2.553857 8.116233 5.118658 -10.008161 -0.581160 -5.270254 0.062500 10.783000
H 0.827626 2.893789 7.517704 -8.363176 -4.080683 -3.974673 0.062500 10.783000
O 0.780970 3.191841 7.433193 -2.325336 0.435128 -2.863948 1.000000 -21.566000
H 0.550691 3.212264 7.216742 9.622633 -4.061510 -6.239932 0.062500 10.783000
H 2.809017 4.946892 7.278547 7.036394 -3.027282 -4.836132 0.062500 10.783000
O 2.747081 5.111017 7.534206 -3.712311 -0.438721 -2.548500 1.000000 -21.566000
H 3.027241 5.248293 7.626491 -3.796876 -4.365565 -10.004044 0.062500 10.783000
H 3.025991 8.811459 8.034399 -4.308607 1.173513 6.533865 0.062500 10.783000
O 2.760531 8.729359 7.871119 0.587830 -0.432763 -0.682702 1.000000 -21.566000
H 2.503698 8.730123 8.049700 7.861460 2.435634 -8.415879 0.062500 10.783000
H 0.762857 3.731247 3.363412 -4.927944 -1.926304 -1.585793 0.062500 10.783000
O 0.707765 3.674121 3.049641 1.132384 1.005921 1.412688 1.000000 -21.566000
H 0.390861 3.654145 2.998646 -6.581209 6.355188 -2.648467 0.062500 10.783000
H 3.275044 6.321358 13.905909 2.311607 -1.755386 -8.036909 0.062500 10.783000
O 3.273241 6.528656 14.148090 -6.261775 0.157424 -1.998902 1.000000 -21.566000
H 3.261026 6.839298 14.046310 0.588243 17.740722 -11.434010 0.062500 10.783000
H 6.035823 9.389689 3.333833 6.233394 -2.454446 7.523383 0.062500 10.783000
O 5.724116 9.322894 3.365394 -0.253437 1.219096 0.988894 1.000000 -21.566000
H 5.561594 9.592864 3.441968 6.844528 12.353455 15.407247 0.062500 10.783000
H 3.922206 11.402672 6.027081 -4.890281 -3.495448 -1.125691 0.062500 10.783000
O 3.781819 11.602417 6.250827 -0.766146 -0.606732 1.582536 1.000000 -21.566000
H 3.509680 11.441856 6.267797 7.652686 -5.345042 12.528687 0.062500 10.783000
H 1.681227 4.815809 2.893819 1.910841 -1.760131 1.830206 0.062500 10.783000
O 1.965727 4.946168 2.806929 -1.800874 -0.554147 0.884225 1.000000 -21.566000
H 2.012695 5.220624 2.954614 -9.183905 -2.595759 2.847029 0.062500 10.783000
H 13.568358 8.346357 1.682639 6.266123 1.321317 2.933966 0.062500 10.783000
O 13.851925 8.177680 1.739782 4.349206 5.253636 1.445661 1.000000 -21.566000
H 13.805103 8.022171 2.003578 11.780556 -17.953879 -2.766624 0.062500 10.783000
H 12.719339 5.890604 6.421779 -6.400591 -8.043858 -1.179785 0.062500 10.783000
O 13.013902 5.805615 6.292894 0.723926 1.359805 -2.269745 1.000000 -21.566000
H 13.196417 5.921547 6.530912 -7.359824 4.196022 -4.414730 0.062500 10.783000
H 10.317877 9.206586 2.646742 3.294133 -4.019322 1.274774 0.062500 10.783000
O 10.233483 8.981232 2.444809 -2.766385 2.756499 1.008391 1.000000 -21.566000
H 10.488800 8.985237 2.224345 10.206283 15.840320 -8.232111 0.062500 10.783000
H 2.143890 10.755063 1.531316 -3.703814 -6.257251 12.762550 0.062500 10.783000
O 2.316708 10.673164 1.266323 -2.742196 1.383268 1.798423 1.000000 -21.566000
H 2.445065 10.902158 1.090419 4.684018 2.864587 3.282275 0.062500 10.783000
H 9.947620 9.106046 12.764936 -7.847857 14.213067 12.403633 0.062500 10.783000
O 9.697334 8.943229 12.883984 -3.742723 0.836356 -3.617853 1.000000 -21.566000
H 9.687564 8.928715 13.216184 21.720987 2.690840 0.564432 0.062500 10.783000
H 10.526823 10.256815 8.354181 -5.211355 3.314874 4.856791 0.062500 10.783000
O 10.643197 10.497637 8.174677 -2.476935 2.549140 -0.580400 1.000000 -21.566000
H 10.392941 10.563812 8.002278 4.372856 -8.830207 -6.429128 0.062500 10.783000
H 12.308339 6.784032 9.347012 11.371908 -4.378045 -8.564559 0.062500 10.783000
O 12.393989 6.567785 9.553217 1.456130 0.728448 0.468391 1.000000 -21.566000
H 12.200651 6.605816 9.811294 -6.451903 5.206874 -3.847325 0.062500 10.783000
H 4.351287 0.544049 7.770489 9.508014 -6.417593 4.689676 0.062500 10.783000
O 4.428976 0.738022 7.525900 3.604822 -3.088847 -0.831500 1.000000 -21.566000
H 4.553096 0.552996 7.290676 2.301238 -2.122190 -8.220786 0.062500 10.783000
H 10.992444 5.043575 7.216005 8.582288 -1.942796 -5.413034 0.062500 10.783000
O 11.305603 4.958985 7.254478 2.704321 1.070683 0.511513 1.000000 -21.566000
H 11.398901 4.937508 6.960244 4.279319 -5.502176 -0.971053 0.062500 10.783000
H 2.982939 9.696506 4.683269 9.964517 -3.051391 -7.130738 0.062500 10.783000
O 2.717987 9.560106 4.599467 -4.851816 -1.835032 -0.609942 1.000000 -21.566000
H 2.619042 9.716607 4.341413 -0.460722 -7.944669 -6.342758 0.062500 10.783000
H 6.072686 0.812900 11.390095 -4.712305 -5.150511 -10.822764 0.062500 10.783000
O 6.313375 0.689176 11.213197 0.702580 0.299921 -0.301249 1.000000 -21.566000
H 6.524690 0.596198 11.444832 9.630179 2.415041 -14.114443 0.062500 10.783000
H 8.852008 10.627075 11.296220 7.614832 1.109926 -7.690149 0.062500 10.783000
O 8.747526 10.745987 11.022314 -0.068441 1.669556 -3.329551 1.000000 -21.566000
H 8.603684 11.002813 11.152642 9.689641 4.216552 8.063849 0.062500 10.783000
H 5.474609 9.713979 14.715734 1.268747 -6.106525 4.461465 0.062500 10.783000
O 5.771268 9.688735 14.591814 0.096838 -2.050088 -3.217083 1.000000 -21.566000
H 5.763696 9.856413 14.324522 4.025235 -16.631995 -8.158279 0.062500 10.783000
H 3.577029 9.643202 9.152007 -12.278340 -5.530809 1.545173 0.062500 10.783000
O 3.447601 9.571445 8.863177 -4.213118 -0.257603 -4.436675 1.000000 -21.566000
H 3.411868 9.855493 8.697282 -5.882737 6.415714 -8.677667 0.062500 10.783000
H 11.029885 12.100896 12.346736 12.868268 -2.827117 -13.790323 0.062500 10.783000
O 11.171528 12.345307 12.496751 0.941594 -3.034699 -3.773674 1.000000 -21.566000
H 11.056116 12.608373 12.360756 0.607786 -2.682391 7.278099 0.062500 10.783000
H 7.281837 8.097623 3.787089 -10.422266 -12.186592 -18.774129 0.062500 10.783000
O 7.564050 8.035304 3.634144 -0.472451 -1.368777 -3.895116 1.000000 -21.566000
H 7.648631 7.740556 3.708847 0.141079 15.380471 -1.247681 0.062500 10.783000
H 10.922425 8.005449 6.652950 -9.286511 -9.127338 4.414781 0.062500 10.783000
O 10.653725 8.095258 6.509776 4.445988 2.145423 -0.834214 1.000000 -21.566000
H 10.683768 7.949357 6.222333 -6.168484 -0.588668 -6.996762 0.062500 10.783000
H 6.927192 9.095510 3.909471 -3.574028 -5.695573 0.376201 0.062500 10.783000
O 6.944805 9.191136 4.210399 -0.846647 1.997548 -0.346249 1.000000 -21.566000
H 7.182152 9.029343 4.336889 1.402219 -4.608677 -8.349714 0.062500 10.783000
H 0.150726 11.232055 11.867360 2.152011 -0.493820 -6.730204 0.062500 10.783000
O 0.413165 11.066620 11.942476 -0.694143 2.964886 -2.293767 1.000000 -21.566000
H 0.339586 10.799082 12.110919 -6.087844 -2.006702 -3.062429 0.062500 10.783000
H 4.078606 8.829537 4.692577 5.532930 3.860199 2.823104 0.062500 10.783000
O 4.112894 8.526129 4.592312 0.152859 0.060989 -0.564954 1.000000 -21.566000
H 4.239968 8.522198 4.282588 0.476586 -1.302877 5.425273 0.062500 10.783000
H 0.137327 8.124807 6.474375 -0.469637 -1.335697 -3.356197 0.062500 10.783000
O 0.070354 7.837097 6.358082 -0.539935 0.740198 1.360464 1.000000 -21.566000
H 14.724085 7.903916 6.053124 -3.489731 10.198698 2.614713 0.062500 10.783000
H 12.591437 5.963299 3.589042 -12.953605 -7.232219 -1.346177 0.062500 10.783000
O 12.818216 5.852575 3.787701 -3.482640 -3.710139 -1.113060 1.000000 -21.566000
H 12.913985 6.100158 3.965419 -19.275399 0.721916 17.596651 0.062500 10.783000
H 11.757434 8.125018 8.182980 1.992983 6.328853 -2.445574 0.062500 10.783000
O 11.466957 8.238985 8.230051 -2.696866 -2.017873 0.512710 1.000000 -21.566000
H 11.288029 8.062670 8.443574 -2.778914 -1.608023 0.476516 0.062500 10.783000
H 13.734321 13.189077 5.666189 -16.387866 -13.233044 -2.088129 0.062500 10.783000
O 13.888461 13.152482 5.378251 -2.180826 1.533685 0.181720 1.000000 -21.566000
H 14.201517 13.160876 5.378645 1.307209 12.040160 15.482435 0.062500 10.783000
H 2.662059 5.331556 5.913571 5.367869 1.804509 12.541246 0.062500 10.783000
O 2.942166 5.173939 5.854358 3.004366 -1.266102 -0.599836 1.000000 -21.566000
H 2.863443 4.863163 5.846021 -16.335925 2.320046 -6.208541 0.062500 10.783000
H 0.703512 10.822558 14.269871 2.440464 -6.186513 -1.584400 0.062500 10.783000
O 0.766484 10.991735 14.003285 0.370977 -1.452934 -0.080836 1.000000 -21.566000
H 0.976626 10.790621 13.864934 -12.201833 -3.151793 -10.463123 0.062500 10.783000
H 2.341003 7.613523 2.450488 10.349371 -4.655135 -7.431382 0.062500 10.783000
O 2.635428 7.578909 2.536517 -1.020470 3.442445 1.909398 1.000000 -21.566000
H 2.693216 7.359270 2.772144 7.326099 -0.877976 -1.499911 0.062500 10.783000
H 2.329617 9.562828 7.513701 2.005241 12.380293 -11.482561 0.062500 10.783000
O 2.076165 9.534183 7.324187 1.445048 5.016925 -1.858689 1.000000 -21.566000
H 2.074110 9.236465 7.233653 -5.624754 14.287150 -0.645678 0.062500 10.783000
H 3.587408 9.665792 10.711479 9.623567 -0.198960 2.407905 0.062500 10.783000
O 3.476238 9.872651 10.922660 -1.636551 -1.737118 -1.369416 1.000000 -21.566000
H 3.156146 9.861419 10.883292 -4.080658 -5.344366 -4.326784 0.062500 10.783000
H 5.226091 10.924350 6.882474 6.369971 7.590300 -4.536404 0.062500 10.783000
O 4.981591 10.843562 6.690935 -1.948959 0.656668 -0.654637 1.000000 -21.566000
H 5.128171 10.767979 6.419026 3.969671 4.350194 -2.944193 0.062500 10.783000
H 8.449218 8.594422 6.638132 11.280519 -6.012157 -3.956870 0.062500 10.783000
O 8.464373 8.347820 6.853410 1.231526 -0.535671 0.464834 1.000000 -21.566000
H 8.652375 8.440176 7.093426 0.019253 -11.744489 -3.869129 0.062500 10.783000
H 7.260754 6.063438 7.221426 -1.887592 -0.048238 16.955067 0.062500 10.783000
O 7.127850 5.777333 7.310203 -2.534394 -1.523960 -1.518822 1.000000 -21.566000
H 7.148058 5.551193 7.081849 4.414417 -12.852817 14.338966 0.062500 10.783000
H 8.367680 2.247249 12.495631 2.138652 7.495553 -26.051155 0.062500 10.783000
O 8.086068 2.402318 12.565730 2.187941 2.865521 -0.405613 1.000000 -21.566000
H 7.875461 2.183471 12.679555 7.987484 3.468281 1.658284 0.062500 10.783000
H 11.896778 9.875329 3.973894 -12.040824 -6.135258 -12.505684 0.062500 10.783000
O 12.025070 10.051246 4.206807 -2.189740 -1.064303 -0.279562 1.000000 -21.566000
H 12.216832 10.235685 4.052684 -8.667011 -6.480626 -4.695915 0.062500 10.783000
H 12.088516 13.792695 4.866657 -6.227898 -6.509410 15.698994 0.062500 10.783000
O 12.033421 14.067925 5.030029 3.178582 -2.443429 2.095797 1.000000 -21.566000
H 11.886889 14.256225 4.824806 -4.993010 0.939739 0.108812 0.062500 10.783000
H 12.045448 11.301565 12.423022 0.116037 9.001244 -0.179040 0.062500 10.783000
O 12.115968 11.456086 12.690876 -3.845633 -0.142030 -0.702063 1.000000 -21.566000
H 12.107392 11.790346 12.667957 3.554793 1.346591 2.949191 0.062500 10.783000
H 11.007626 9.368919 12.714001 10.831547 3.349729 -0.572098 0.062500 10.783000
O 11.294857 9.239802 12.679303 -0.055232 -0.449649 2.724498 1.000000 -21.566000
H 11.259328 9.005742 12.464404 1.928724 0.756346 -1.829103 0.062500 10.783000
H 3.569655 8.980784 5.149341 6.695576 -1.764539 -6.695601 0.062500 10.783000
O 3.383042 8.748106 5.293210 -4.594265 1.632278 -0.571430 1.000000 -21.566000
H 3.534867 8.467995 5.339845 -4.877189 0.712779 -2.732228 0.062500 10.783000
H 7.261496 9.234609 13.316296 11.367963 -1.901174 -12.079822 0.062500 10.783000
O 6.938371 9.306693 13.292202 -0.892264 -0.503884 1.862594 1.000000 -21.566000
H 6.849437 9.262762 12.990432 -13.320294 3.973907 6.057792 0.062500 10.783000
H 5.152481 13.377940 0.204898 -1.349231 -2.764754 5.475859 0.062500 10.783000
O 5.356879 13.141862 0.153005 0.771564 -0.908448 -1.799182 1.000000 -21.566000
H 5.328275 12.943800 0.407571 1.497585 -4.472649 -3.425879 0.062500 10.783000
H 1.745261 13.030686 5.527978 -5.209824 6.178741 1.078551 0.062500 10.783000
O 1.680741 13.287536 5.725448 -1.880180 0.805227 -0.722081 1.000000 -21.566000
H 1.548119 13.170991 5.999283 7.086452 -16.105454 -9.439954 0.062500 10.783000
H 14.204370 9.697617 5.430272 -0.473093 8.252777 -0.508375 0.062500 10.783000
O 14.058464 9.945916 5.286667 -0.356126 1.285525 -1.354778 1.000000 -21.566000
H 14.261785 10.037521 5.055097 3.513840 14.612500 5.212174 0.062500 10.783000
H 1.452116 6.828325 4.018952 6.403765 -4.988065 0.946508 0.062500 10.783000
O 1.615244 7.105598 4.103271 -1.592823 4.513131 -1.942012 1.000000 -21.566000
H 1.743586 7.220896 3.834462 7.624527 3.129456 -5.300974 0.062500 10.783000
H 3.454994 11.340946 5.546163 -0.417383 -10.992019 -13.652182 0.062500 10.783000
O 3.286475 11.607488 5.486464 0.673506 1.892481 1.851120 1.000000 -21.566000
H 3.360202 11.690430 5.198747 5.977789 5.664064 4.850988 0.062500 10.783000
H 6.085385 12.497608 2.406429 -3.011077 -7.392726 -4.077876 0.062500 10.783000
O 5.788032 12.635958 2.365237 -0.101513 2.572825 -1.478635 1.000000 -21.566000
H 5.851078 12.907574 2.521585 -14.711214 7.771073 2.448412 0.062500 10.783000
H 7.479680 12.041641 13.510016 6.315560 -1.601970 3.712881 0.062500 10.783000
O 7.655786 12.278180 13.641425 -0.214743 -0.736945 -4.428722 1.000000 -21.566000
H 7.494635 12.372605 13.911225 -14.842036 0.200320 -5.814764 0.062500 10.783000
H 6.681409 9.658871 2.800948 -10.036220 13.054994 6.068582 0.062500 10.783000
O 6.608925 9.577055 2.493147 -2.893297 -0.324791 0.374237 1.000000 -21.566000
H 6.309770 9.682387 2.479217 11.389564 1.907323 -4.328294 0.062500 10.783000
H 14.171702 0.845617 0.043221 4.733338 11.448556 -0.695648 0.062500 10.783000
O 14.455961 0.699856 0.126792 2.252985 -5.248419 -4.599286 1.000000 -21.566000
H 14.638397 0.667621 14.604514 -12.101562 -7.516580 -6.436057 0.062500 10.783000
H 5.233176 13.495383 2.346808 2.855883 -7.771083 4.472055 0.062500 10.783000
O 5.073369 13.298746 2.135346 4.844823 1.009920 1.244443 1.000000 -21.566000
H 4.851967 13.151346 2.297410 4.115483 -0.852865 3.568554 0.062500 10.783000
H 12.440538 1.518977 11.201487 0.927485 -4.989983 0.856706 0.062500 10.783000
O 12.700679 1.563996 11.022035 -1.470292 0.421308 0.195185 1.000000 -21.566000
H 12.621136 1.478643 10.715119 1.254071 3.906411 -17.428410 0.062500 10.783000
H 13.884841 12.409944 1.153244 5.792406 -8.243316 8.692353 0.062500 10.783000
O 13.816219 12.675751 1.315382 0.373659 3.297650 -4.308899 1.000000 -21.566000
H 13.729410 12.879890 1.088809 12.709627 9.006342 -4.252707 0.062500 10.783000
H 0.409267 13.947308 3.672413 -6.914758 0.158150 -14.770509 0.062500 10.783000
O 0.137503 13.771216 3.686854 0.068503 -1.728077 -1.467291 1.000000 -21.566000
H 14.620487 13.941185 3.579712 -11.861489 -6.773675 4.836139 0.062500 10.783000
H 14.075910 0.437028 11.500465 -1.115665 5.285582 -2.463358 0.062500 10.783000
O 13.898584 0.174240 11.486212 -1.964721 2.606476 4.016656 1.000000 -21.566000
H 13.602385 0.297657 11.469973 -1.006312 1.512523 -17.663695 0.062500 10.783000
H 14.281973 8.870917 5.852818 -1.630389 5.600561 -1.283028 0.062500 10.783000
O 14.264299 9.127618 5.665936 -3.342228 1.407661 -2.684777 1.000000 -21.566000
H 14.408737 9.351103 5.841825 -8.109876 -4.525229 4.815515 0.062500 10.783000
H 2.221683 12.947272 0.141279 6.106646 9.182715 -12.998679 0.062500 10.783000
O 2.206812 12.971200 0.463933 0.917025 -0.297380 0.938871 1.000000 -21.566000
H 2.523470 13.001736 0.506218 9.733440 -1.009670 -6.324371 0.062500 10.783000
H 0.475775 10.465047 8.837686 -3.446881 1.398202 -1.387957 0.062500 10.783000
O 0.159703 10.520224 8.912862 -0.180603 -0.846187 -3.555295 1.000000 -21.566000
H 14.711897 10.259045 8.914212 -2.090815 -1.926083 1.786754 0.062500 10.783000
H 2.272687 8.410838 0.336993 1.466911 -3.696956 11.956036 0.062500 10.783000
O 2.357136 8.185890 0.141407 -1.681175 0.413907 0.930707 1.000000 -21.566000
H 2.120610 8.156179 14.656663 -6.553639 3.066434 -7.813935 0.062500 10.783000
H 5.481033 11.721385 7.263819 -1.215053 -4.161313 -10.228713 0.062500 10.783000
O 5.222959 11.910187 7.308978 0.286647 -0.325327 0.391089 1.000000 -21.566000
H 5.023172 11.842655 7.075210 -0.440613 -6.933993 6.448470 0.062500 10.783000
H 6.812287 3.168902 7.137636 -7.667330 -2.107046 5.067599 0.062500 10.783000
O 6.533274 3.096947 6.986799 3.028684 -1.024411 2.218100 1.000000 -21.566000
H 6.546157 2.770433 6.975095 3.117403 -15.590699 -11.411283 0.062500 10.783000
H 9.906886 11.888453 3.904892 8.426134 22.445464 3.286088 0.062500 10.783000
O 9.745421 11.827082 4.173181 1.012455 -1.364690 -0.922703 1.000000 -21.566000
H 9.767521 11.506196 4.189414 -4.650919 7.778003 -7.623347 0.062500 10.783000
H 9.647706 8.458747 8.601430 -2.029979 6.626527 -10.961464 0.062500 10.783000
O 9.866262 8.682358 8.548084 -0.142143 0.394559 0.590877 1.000000 -21.566000
H 10.045555 8.699170 8.807202 4.119370 3.888459 -8.815112 0.062500 10.783000
H 6.840446 11.641793 8.935917 2.372074 -3.549931 0.345464 0.062500 10.783000
O 6.988863 11.369935 9.042348 -1.126938 -2.025952 2.319747 1.000000 -21.566000
H 6.773461 11.152542 9.105940 -5.791457 12.300474 -0.332192 0.062500 10.783000
H 11.543135 4.867744 1.527797 -10.898085 -1.025490 -2.742270 0.062500 10.783000
O 11.458859 4.939184 1.824197 -1.668216 -1.901411 -1.531084 1.000000 -21.566000
H 11.306517 4.693832 1.941464 5.811071 8.441275 -3.596869 0.062500 10.783000
H 13.498742 4.638682 14.421492 2.685590 -3.730584 5.498678 0.062500 10.783000
O 13.550882 4.823781 14.153845 1.934635 0.310694 3.575692 1.000000 -21.566000
H 13.672092 5.098754 14.246971 -6.560015 3.272789 -2.140663 0.062500 10.783000
H 10.492447 9.739713 3.448229 -2.622337 -4.064029 3.388181 0.062500 10.783000
O 10.481572 9.889946 3.739230 1.835369 0.886510 -3.526451 1.000000 -21.566000
H 10.183139 9.852504 3.848525 -4.970342 -1.883375 -1.024028 0.062500 10.783000
H 12.780732 12.530472 2.223336 3.152100 -16.845454 -4.703440 0.062500 10.783000
O 12.511099 12.499790 2.407196 -0.958978 -1.944892 4.008429 1.000000 -21.566000
H 12.266386 12.419714 2.199517 1.958655 -2.488276 -5.169868 0.062500 10.783000
H 1.698345 0.186495 7.266233 2.799951 -3.842600 0.671536 0.062500 10.783000
O 1.617447 14.684072 7.060591 -3.121741 -0.685957 -3.493531 1.000000 -21.566000
H 1.517342 14.428115 7.227806 -9.940480 -1.769511 -5.233718 0.062500 10.783000
H 0.001020 10.060894 14.275540 -0.762421 14.734855 5.050807 0.062500 10.783000
O 0.066593 9.844964 14.040568 4.956116 2.249354 0.572255 1.000000 -21.566000
H 14.546796 9.723165 13.909316 6.412417 -4.156275 15.217873 0.062500 10.783000
H 2.589684 3.945736 5.753826 -5.777004 9.968639 -0.453776 0.062500 10.783000
O 2.755522 3.876181 5.476970 -3.202161 0.409636 -2.670561 1.000000 -21.566000
H 3.057581 3.796344 5.512703 -1.575888 -0.956161 6.682855 0.062500 10.783000
H 12.709601 12.365872 6.073949 0.776528 -7.375102 9.524776 0.062500 10.783000
O 13.023150 12.431687 6.136012 -1.468154 -0.423459 -1.034186 1.000000 -21.566000
H 13.066569 12.414845 6.449208 -9.184931 4.696698 -3.444545 0.062500 10.783000
H 2.745765 11.899599 6.375201 -9.480037 4.541326 6.264796 0.062500 10.783000
O 2.664404 11.601236 6.414977 -0.774402 -1.055516 0.853708 1.000000 -21.566000
H 2.615174 11.573990 6.743947 13.323094 12.678720 5.905208 0.062500 10.783000
H 12.820417 11.167525 2.920051 -0.667279 -7.095145 -0.880778 0.062500 10.783000
O 12.941868 11.020310 3.182335 -0.611062 0.942714 0.203364 1.000000 -21.566000
H 13.210134 11.185082 3.245276 -13.461801 15.092124 -2.186581 0.062500 10.783000
H 6.650629 13.774471 4.413735 12.400368 1.661393 -2.620652 0.062500 10.783000
O 6.458691 13.978593 4.553861 1.293742 -1.170305 3.427534 1.000000 -21.566000
H 6.347882 14.162686 4.306621 -2.547209 -9.823908 6.760843 0.062500 10.783000
H 6.567791 10.753402 10.520886 12.484016 -8.960080 -1.924825 0.062500 10.783000
O 6.598283 10.523740 10.300457 0.636839 -2.450284 -1.111435 1.000000 -21.566000
H 6.796803 10.293363 10.412185 -12.174182 16.719891 11.666152 0.062500 10.783000
H 7.471043 10.178650 6.412474 5.870536 8.642793 1.695542 0.062500 10.783000
O 7.432823 10.257662 6.100351 -1.991804 -1.630600 -0.118929 1.000000 -21.566000
H 7.369590 10.572054 6.130963 8.113598 4.742633 17.291911 0.062500 10.783000
H 4.162837 14.673663 3.112633 7.500354 8.903346 4.326863 0.062500 10.783000
O 4.317314 14.401308 3.116584 -6.410740 -0.163719 -0.423172 1.000000 -21.566000
H 4.171178 14.137003 3.248279 4.805959 2.150383 21.715747 0.062500 10.783000
H 6.726655 12.538081 2.291346 -5.228653 -9.375831 -5.613436 0.062500 10.783000
O 6.538512 12.444883 2.529104 -2.841129 2.041675 -1.472145 1.000000 -21.566000
H 6.738774 12.419012 2.788307 -3.088419 8.234275 -0.824365 0.062500 10.783000
H 5.287766 10.713567 9.113326 8.367721 6.699065 -2.473451 0.062500 10.783000
O 5.303501 10.448493 9.298110 1.690548 3.920186 0.517563 1.000000 -21.566000
H 5.608641 10.431701 9.380952 -9.345397 8.499006 -12.789388 0.062500 10.783000
H 12.369406 0.404475 3.655701 -10.293482 3.985427 -10.606517 0.062500 10.783000
O 12.235526 0.296448 3.925638 2.676752 -4.793863 3.825463 1.000000 -21.566000
H 12.249393 14.709605 3.931954 -13.792464 -1.334965 1.722816 0.062500 10.783000
H 1.400336 11.102586 0.757270 -9.715971 15.413519 -1.104195 0.062500 10.783000
O 1.127626 11.071845 0.896263 0.840977 -0.689765 -2.857776 1.000000 -21.566000
H 0.997787 11.359443 0.816336 8.070554 0.499604 -7.266175 0.062500 10.783000
H 1.902026 10.988289 6.748659 23.596994 -3.057465 8.016312 0.062500 10.783000
O 1.914233 11.175919 6.496274 -0.235364 -1.596224 -0.626200 1.000000 -21.566000
H 2.197409 11.329133 6.455710 2.986750 -14.231155 -19.195142 0.062500 10.783000
H 1.856481 12.741021 13.780253 10.289561 1.375362 -9.182195 0.062500 10.783000
O 1.607689 12.541811 13.768646 -2.399845 -2.426685 2.117439 1.000000 -21.566000
H 1.480517 12.523555 14.068152 -7.392134 7.721662 11.533927 0.062500 10.783000
H 7.157371 2.133247 1.049770 7.479424 -4.073252 -20.865401 0.062500 10.783000
O 6.975349 1.875346 1.136179 2.393094 2.230308 -2.973515 1.000000 -21.566000
H 6.837407 1.745315 0.872011 -2.088010 0.044504 11.598097 0.062500 10.783000
H 1.927672 12.002381 8.891467 4.405402 -4.057102 -0.709134 0.062500 10.783000
O 2.046934 11.963558 8.592352 1.428570 -0.675765 0.783953 1.000000 -21.566000
H 2.371322 12.001976 8.620574 -2.572307 7.201833 8.873925 0.062500 10.783000
H 1.338668 14.288326 0.237106 2.539788 2.846408 -10.505614 0.062500 10.783000
O 1.615084 14.132648 0.211450 3.915653 0.339786 -1.231996 1.000000 -21.566000
H 1.871805 14.329001 0.247299 8.586654 -0.804931 -5.870927 0.062500 10.783000
H 4.668042 12.773476 3.733048 -9.977928 -6.613534 14.455801 0.062500 10.783000
O 4.708511 12.466367 3.722608 -2.042832 0.877466 -1.803205 1.000000 -21.566000
H 4.703091 12.354441 3.425705 -4.013503 0.289005 6.014016 0.062500 10.783000
H 6.714197 9.756901 13.522014 1.687125 -5.965254 -10.990891 0.062500 10.783000
O 6.631760 10.069023 13.565773 -1.961048 -0.391375 -3.248934 1.000000 -21.566000
H 6.803592 10.271217 13.384738 -3.187163 -3.729354 14.720227 0.062500 10.783000
H 2.898641 11.434246 9.539362 -4.363507 1.020662 -10.642564 0.062500 10.783000
O 2.657470 11.265301 9.434995 -0.593009 -1.556271 0.892248 1.000000 -21.566000
H 2.353921 11.312029 9.576083 -7.714873 -0.183696 -0.774692 0.062500 10.783000
H 14.681682 10.401039 4.525071 12.489039 5.927688 -0.685022 0.062500 10.783000
O 14.504924 10.143932 4.595338 0.591096 1.783802 -0.126193 1.000000 -21.566000
H 14.517523 9.921791 4.346961 -4.103381 -7.213498 1.612395 0.062500 10.783000
H 11.511354 11.512718 10.099204 -8.265077 5.406462 -4.631451 0.062500 10.783000
O 11.283401 11.683115 10.243358 1.479798 -1.287448 -0.463126 1.000000 -21.566000
H 11.005234 11.672623 10.082053 8.989581 9.486218 4.793437 0.062500 10.783000
H 9.335918 7.704230 2.368691 5.202039 0.860906 6.431774 0.062500 10.783000
O 9.570404 7.811974 2.148977 0.947646 0.238027 1.006099 1.000000 -21.566000
H 9.456156 8.073555 1.984983 1.467890 12.727608 -1.555292 0.062500 10.783000
H 3.596138 1.271996 12.549858 -2.483537 1.490064 5.216664 0.062500 10.783000
O 3.740818 1.564192 12.575351 0.361058 -2.301806 0.127012 1.000000 -21.566000
H 3.780920 1.676098 12.271650 6.066954 -13.348681 0.278427 0.062500 10.783000
H 9.996889 10.076630 9.057477 4.464696 7.800312 -0.868000 0.062500 10.783000
O 10.172434 10.101753 8.789154 1.108348 -2.680941 -0.348608 1.000000 -21.566000
H 10.316423 9.813481 8.750550 1.457983 -2.699309 1.509243 0.062500 10.783000
H 8.022426 12.997713 12.660033 4.835453 3.383004 -8.674610 0.062500 10.783000
O 7.909897 12.878154 12.390452 1.541599 -1.011698 -0.133231 1.000000 -21.566000
H 7.681528 12.677524 12.526092 -11.186987 -6.771437 5.600805 0.062500 10.783000
H 12.908091 0.833118 3.261863 -4.688223 -4.476371 3.897779 0.062500 10.783000
O 12.710073 0.742257 3.025144 0.653653 -0.594272 2.474965 1.000000 -21.566000
H 12.872873 0.702020 2.755353 -3.999180 -3.866202 1.288624 0.062500 10.783000
H 1.569364 0.561718 14.678413 -11.829068 -2.768692 -12.748338 0.062500 10.783000
O 1.837696 0.685744 14.546809 0.424258 -2.483050 2.009720 1.000000 -21.566000
H 1.912679 0.982799 14.623364 11.028102 0.619887 -0.527773 0.062500 10.783000
H 11.705888 2.525421 4.477854 9.220356 -2.373423 1.146073 0.062500 10.783000
O 11.540004 2.800621 4.559999 -2.537006 -2.030056 1.106286 1.000000 -21.566000
H 11.489847 2.755818 4.879262 -7.212008 -12.130556 0.921093 0.062500 10.783000
H 12.844120 3.086524 4.670080 -8.424720 17.247106 -5.887794 0.062500 10.783000
O 12.851579 2.999448 4.343284 2.479261 -3.099545 -1.424059 1.000000 -21.566000
H 12.907209 3.272541 4.196943 1.956634 3.198953 -5.155987 0.062500 10.783000
H 2.039111 14.576019 2.159612 -6.212729 -0.612572 2.421418 0.062500 10.783000
O 2.245113 0.075600 2.211212 -0.046350 0.387083 -3.705301 1.000000 -21.566000
H 2.545220 14.702471 2.175751 -6.957655 -17.652038 15.212306 0.062500 10.783000
H 4.506158 0.369134 2.301784 0.526141 17.223154 -20.110295 0.062500 10.783000
O 4.356934 0.256342 2.043830 0.066236 4.298103 1.275878 1.000000 -21.566000
H 4.403362 14.690617 1.965650 7.906652 2.534247 11.220884 0.062500 10.783000
H 5.455491 13.645815 8.017670 0.644332 5.295640 -13.963295 0.062500 10.783000
O 5.548304 13.877180 8.219249 0.779913 -0.499900 2.189896 1.000000 -21.566000
H 5.794557 13.739201 8.370882 -5.102973 -1.210137 2.422313 0.062500 10.783000
H 5.905816 12.078827 4.175181 -8.036697 11.904530 9.122878 0.062500 10.783000
O 5.986449 11.879549 4.413819 -2.023631 -1.798015 0.077461 1.000000 -21.566000
H 5.966421 12.069680 4.669024 14.642376 -4.318724 -8.271667 0.062500 10.783000
H 4.553131 11.450468 4.009293 3.912089 19.225813 -15.716506 0.062500 10.783000
O 4.549952 11.691016 4.227719 -0.891390 -0.212706 -1.192716 1.000000 -21.566000
H 4.566430 11.966532 4.070907 16.342227 -5.416818 2.302977 0.062500 10.783000
H 1.982356 11.896080 10.691382 4.201889 2.695014 -3.569089 0.062500 10.783000
O 1.670340 11.823255 10.641620 1.484163 0.937432 -0.398343 1.000000 -21.566000
H 1.517348 12.105831 10.635949 8.710331 -0.838542 -0.834484 0.062500 10.783000
H 6.436670 11.545214 5.068850 6.675511 3.844448 -0.896396 0.062500 10.783000
O 6.359571 11.252669 5.164699 1.313916 -1.216199 4.455596 1.000000 -21.566000
H 6.444382 11.007357 4.973119 2.575030 -11.413376 9.082868 0.062500 10.783000
H 13.041017 0.992467 0.868378 10.674111 8.247180 8.964254 0.062500 10.783000
O 12.988519 0.737901 0.669370 0.349844 -0.827234 2.165550 1.000000 -21.566000
H 12.666514 0.743185 0.596349 -7.755876 9.468118 -6.846719 0.062500 10.783000
H 8.718738 1.384704 0.928929 14.687233 10.983724 5.517349 0.062500 10.783000
O 8.530194 1.396809 1.208126 -1.354128 -2.022230 -1.760722 1.000000 -21.566000
H 8.603824 1.162646 1.403636 16.219086 -3.902736 -3.017714 0.062500 10.783000
H 12.948898 0.663674 10.977077 -6.778669 0.188538 3.950035 0.062500 10.783000
O 13.098401 0.517384 11.205809 -0.682250 0.882288 -1.787739 1.000000 -21.566000
H 13.011587 0.605187 11.507328 -6.677666 9.469478 -3.327046 0.062500 10.783000
H 5.317532 12.777479 7.700535 2.983092 5.567979 -5.669206 0.062500 10.783000
O 5.173422 12.521729 7.829109 -1.512374 0.543610 -1.832273 1.000000 -21.566000
H 5.241781 12.258856 7.646267 -3.043072 -9.470806 -7.778349 0.062500 10.783000
H 13.386021 14.533748 4.484324 5.797676 -4.431625 6.317737 0.062500 10.783000
O 13.643996 14.452154 4.665019 1.599064 0.388875 2.544833 1.000000 -21.566000
H 13.869915 14.680639 4.657311 3.976967 3.622245 13.278575 0.062500 10.783000
H 0.675997 0.869536 7.020111 2.022716 -8.686184 0.009727 0.062500 10.783000
O 0.585073 0.667274 6.801461 0.090912 -1.519383 0.578155 1.000000 -21.566000
H 0.431509 0.438957 6.960300 -6.386939 0.992445 -5.267422 0.062500 10.783000
H 14.513226 11.653664 4.254841 4.012184 3.279484 -4.109941 0.062500 10.783000
O 14.428229 11.349689 4.278547 -2.493872 -1.383442 -3.039532 1.000000 -21.566000
H 14.414753 11.197362 3.976320 4.446463 -2.001833 -0.849023 0.062500 10.783000
H 5.087913 11.698113 1.843969 -11.622231 -2.402648 4.725478 0.062500 10.783000
O 4.974371 11.426601 1.957241 -1.151793 -2.151236 2.375315 1.000000 -21.566000
H 5.106352 11.174974 1.819774 -0.868901 3.615669 9.443562 0.062500 10.783000
H 8.300678 7.593395 11.932575 7.932825 0.815147 0.310814 0.062500 10.783000
O 8.206937 7.714222 12.223746 -1.200280 3.925326 -0.001863 1.000000 -21.566000
H 8.004637 7.518016 12.344137 -1.366035 -0.451066 -9.668919 0.062500 10.783000
H 5.146019 3.124556 0.985271 3.228016 6.933151 0.740259 0.062500 10.783000
O 4.991949 2.865363 1.062244 0.891005 1.994115 -0.812714 1.000000 -21.566000
H 5.211414 2.665749 1.192327 3.204066 -9.770222 13.316975 0.062500 10.783000
H 6.823152 2.964837 4.393590 -8.780206 -5.431053 4.676828 0.062500 10.783000
O 6.540303 3.025561 4.252951 -1.650840 3.498841 0.995345 1.000000 -21.566000
H 6.556212 3.124637 3.946341 10.796702 -8.139064 -5.984494 0.062500 10.783000
H 10.275910 4.991122 0.011784 7.574435 -5.959232 -6.560451 0.062500 10.783000
O 10.448434 5.128487 14.518137 1.637016 1.913865 -1.573832 1.000000 -21.566000
H 10.745692 5.027070 14.562121 -0.879982 9.777582 3.440110 0.062500 10.783000
H 3.987358 5.363752 13.024633 -5.271540 -0.734544 3.817826 0.062500 10.783000
O 3.896011 5.067637 13.102585 1.183111 -0.463757 4.375187 1.000000 -21.566000
H 4.112627 4.878279 12.971967 4.315641 5.068160 0.102672 0.062500 10.783000
H 12.649432 5.366330 4.262080 -1.997707 -0.947786 2.362429 0.062500 10.783000
O 12.549478 5.056130 4.301174 -1.490550 0.404449 -2.812304 1.000000 -21.566000
H 12.476302 5.059006 4.610068 -2.084856 -7.322701 -2.123286 0.062500 10.783000
H 4.070552 13.776069 14.075956 2.119958 -5.856016 17.445537 0.062500 10.783000
O 3.840008 13.921999 13.919382 0.672741 -1.524357 1.533168 1.000000 -21.566000
H 3.841489 13.804432 13.605140 -3.655820 5.658501 -11.627007 0.062500 10.783000
H 6.989755 3.533731 4.883050 -4.637502 -4.905584 -7.416644 0.062500 10.783000
O 6.764574 3.741482 4.974504 -2.575306 -1.852444 -0.638075 1.000000 -21.566000
H 6.770874 4.036967 4.840384 3.464306 4.476476 8.152329 0.062500 10.783000
H 8.607288 3.634549 11.210249 -11.118759 -3.563109 -12.216106 0.062500 10.783000
O 8.928458 3.706107 11.278452 -1.297709 3.259654 -1.357786 1.000000 -21.566000
H 9.031229 3.550794 11.531309 3.025472 -11.805490 -1.428629 0.062500 10.783000
H 8.539574 3.131195 4.332247 8.106276 0.826898 11.866397 0.062500 10.783000
O 8.521753 3.394850 4.500392 1.424200 -3.749163 -2.623697 1.000000 -21.566000
H 8.645512 3.317338 4.789394 -1.456293 -1.500397 -6.413553 0.062500 10.783000
H 0.744185 13.811588 0.977934 2.709827 3.934224 10.145886 0.062500 10.783000
O 0.463943 13.675967 1.048281 2.368364 -0.803668 -1.812593 1.000000 -21.566000
H 0.290570 13.850022 1.246690 7.258761 1.874524 7.126480 0.062500 10.783000
H 10.002456 1.574760 0.944027 -2.362985 -7.493605 0.554987 0.062500 10.783000
O 10.168221 1.300785 0.864342 -4.581967 -0.539789 0.025630 1.000000 -21.566000
H 10.079584 1.127604 1.117929 -11.963291 0.834433 3.697132 0.062500 10.783000
H 11.743365 0.566440 12.469621 -0.014194 6.300907 0.594472 0.062500 10.783000
O 11.759287 0.295009 12.278828 0.257825 0.864057 -0.923537 1.000000 -21.566000
H 11.581313 0.058864 12.429822 -8.090324 7.848607 2.282596 0.062500 10.783000
H 2.507145 9.856383 6.782630 3.506670 -0.093333 -2.953045 0.062500 10.783000
O 2.703363 10.065416 6.641289 -2.441854 1.182406 1.724935 1.000000 -21.566000
H 2.951186 9.876828 6.585974 5.487897 -5.820733 3.327306 0.062500 10.783000
H 5.297449 0.118935 1.838137 -8.522419 -1.303078 -18.158396 0.062500 10.783000
O 5.362548 14.548748 1.868947 0.901281 -3.068970 1.017128 1.000000 -21.566000
H 5.509262 14.536748 2.154498 11.156929 7.487674 9.562797 0.062500 10.783000
H 2.386113 2.569260 9.141544 8.555089 7.066484 -6.059164 0.062500 10.783000
O 2.597457 2.796134 9.204209 5.011651 -0.501902 -0.317805 1.000000 -21.566000
H 2.622934 2.976334 8.940330 7.960233 3.111004 -0.260285 0.062500 10.783000
H 3.602415 1.663087 5.412027 -4.541042 -6.232351 -4.713605 0.062500 10.783000
O 3.874155 1.485204 5.399323 -3.328211 1.067999 1.817579 1.000000 -21.566000
H 4.059906 1.581306 5.638738 0.018359 11.740909 -4.071595 0.062500 10.783000
H 3.101221 0.433320 9.002190 -3.165841 6.539122 9.836659 0.062500 10.783000
O 3.367827 0.445483 9.186469 1.178509 -1.875360 -3.120459 1.000000 -21.566000
H 3.523712 0.173652 9.178815 -10.049259 8.754824 8.607521 0.062500 10.783000
H 3.244153 13.441161 6.349915 -6.064205 -2.434660 7.626743 0.062500 10.783000
O 3.349584 13.167048 6.247029 2.312181 4.209170 -2.576265 1.000000 -21.566000
H 3.336027 13.228119 5.939912 10.306742 1.385019 -6.566851 0.062500 10.783000
H 4.483513 2.830400 3.844969 9.093564 6.658180 4.211553 0.062500 10.783000
O 4.650011 3.090018 3.922944 1.679004 -2.668601 -0.827822 1.000000 -21.566000
H 4.620911 3.151273 4.233935 11.299028 2.373493 -4.746073 0.062500 10.783000
H 3.747455 3.325381 4.422254 0.646207 3.142909 13.723073 0.062500 10.783000
O 3.529754 3.334353 4.183522 -2.106295 2.291687 0.351467 1.000000 -21.566000
H 3.233538 3.460759 4.200776 -5.728761 -0.497892 -5.388929 0.062500 10.783000
H 6.212093 11.463944 12.414781 -4.976751 -10.324337 8.701111 0.062500 10.783000
O 6.089720 11.302491 12.166152 -0.539012 0.510076 0.473619 1.000000 -21.566000
H 6.311174 11.202776 11.959094 -0.688923 2.128635 -1.381618 0.062500 10.783000
H 13.248426 0.640525 0.239353 1.517826 0.425698 0.927654 0.062500 10.783000
O 13.373378 0.567469 14.689045 -0.484628 -2.250904 0.964517 1.000000 -21.566000
H 13.362607 0.249780 14.655400 3.106735 3.624911 -13.639969 0.062500 10.783000
H 0.637808 2.651094 5.557587 -18.080260 -3.343649 4.854371 0.062500 10.783000
O 0.718995 2.857711 5.785725 -0.244690 3.244869 -1.208142 1.000000 -21.566000
H 0.467593 2.953066 5.937310 14.690609 2.461753 9.478135 0.062500 10.783000
H 9.268170 4.446815 6.478430 0.079236 5.286699 0.092701 0.062500 10.783000
O 9.246310 4.161905 6.629888 2.189003 -1.978018 3.983788 1.000000 -21.566000
H 8.945779 4.189043 6.744223 4.937194 2.400142 -7.125077 0.062500 10.783000
H 9.269344 6.584340 3.072261 7.875317 -17.446174 -0.789813 0.062500 10.783000
O 9.293956 6.648858 3.395177 0.220470 -1.367933 -2.121231 1.000000 -21.566000
H 9.563210 6.557271 3.541390 -5.602319 -18.424385 19.461488 0.062500 10.783000
H 12.461573 1.893878 2.759282 1.548999 -1.063798 7.236573 0.062500 10.783000
O 12.525021 2.006010 2.467211 -0.656575 -0.293821 -5.077607 1.000000 -21.566000
H 12.239268 2.067174 2.327472 4.379853 -1.078327 4.361347 0.062500 10.783000
H 0.509256 5.279907 7.149776 -3.309737 -5.752860 -0.272777 0.062500 10.783000
O 0.441345 4.969817 7.102994 1.721126 -2.767225 -3.963925 1.000000 -21.566000
H 0.599629 4.827844 7.347113 -5.441525 -6.435162 -10.982366 0.062500 10.783000
H 13.257053 6.420855 5.470942 -15.530211 -5.658975 -8.138165 0.062500 10.783000
O 13.110415 6.712195 5.395605 -2.513080 0.282799 1.865815 1.000000 -21.566000
H 13.319237 6.948102 5.423312 0.328427 -6.220887 -23.201486 0.062500 10.783000
H 10.710494 0.335801 7.561580 -1.224196 -4.456813 -11.707816 0.062500 10.783000
O 10.545335 0.278547 7.826961 2.138527 1.995549 -0.580250 1.000000 -21.566000
H 10.769659 0.312309 8.056319 -2.925475 2.776205 2.067640 0.062500 10.783000
H 14.735582 2.037506 2.225372 0.072915 -10.666802 -0.363974 0.062500 10.783000
O 14.629857 2.249017 2.440946 -2.753663 1.902918 -3.972820 1.000000 -21.566000
H 0.140742 2.442759 2.488705 4.693002 -12.633331 -2.205064 0.062500 10.783000
H 1.965184 1.302006 6.089658 2.307751 -5.504315 5.904654 0.062500 10.783000
O 1.769122 1.116971 5.930191 0.797332 -0.534670 1.333030 1.000000 -21.566000
H 1.667127 0.872622 6.102886 -7.090717 5.647636 -0.548589 0.062500 10.783000
H 9.347778 2.309983 5.710038 -11.471179 -14.209464 -11.446114 0.062500 10.783000
O 9.139294 2.548083 5.764221 -0.594243 -1.288976 2.628069 1.000000 -21.566000
H 8.856887 2.408521 5.818352 10.391725 22.984549 -0.514554 0.062500 10.783000
H 3.413971 0.497537 5.250614 -2.048708 -0.130960 -4.553960 0.062500 10.783000
O 3.296554 0.799532 5.249820 -2.233414 -0.578021 -0.288797 1.000000 -21.566000
H 3.574656 0.959476 5.295953 -1.052949 -2.831873 8.470916 0.062500 10.783000
H 3.776141 4.037994 1.813375 -9.724280 7.605550 6.824798 0.062500 10.783000
O 3.768202 4.111870 1.502836 1.614977 -2.966984 0.558787 1.000000 -21.566000
H 3.644039 4.396243 1.452833 -13.788164 1.377346 2.967888 0.062500 10.783000
H 5.732155 6.097774 3.290118 -12.917515 -8.260533 -5.561815 0.062500 10.783000
O 5.815909 6.357477 3.159211 0.539526 -1.132583 -0.198261 1.000000 -21.566000
H 6.127566 6.323853 3.106603 1.377243 10.067132 0.063431 0.062500 10.783000
H 10.860360 8.677224 14.661655 2.297738 14.650646 -7.698427 0.062500 10.783000
O 11.121377 8.634635 0.128215 1.105509 0.185939 -2.086995 1.000000 -21.566000
H 10.964536 8.428202 0.325446 4.675112 -14.302449 -9.304172 0.062500 10.783000
H 5.953945 2.493050 3.365819 7.606638 3.529461 -8.554440 0.062500 10.783000
O 6.266322 2.410460 3.321458 2.458352 4.712296 -2.273183 1.000000 -21.566000
H 6.484615 2.635570 3.396891 -5.582762 4.905763 5.044903 0.062500 10.783000
H 8.644463 7.202441 11.739597 0.094147 -6.185434 13.159071 0.062500 10.783000
O 8.429386 7.306976 11.506928 0.182396 2.060952 0.016866 1.000000 -21.566000
H 8.331067 7.075434 11.300625 -9.974474 13.704584 -8.390895 0.062500 10.783000
H 9.477951 8.750192 13.929209 -7.399291 6.626422 10.477192 0.062500 10.783000
O 9.728302 8.829409 13.728818 -2.882404 -1.973875 -1.442450 1.000000 -21.566000
H 9.868269 8.559978 13.611626 1.445384 7.961905 3.795022 0.062500 10.783000
H 12.120000 3.830974 5.086044 -7.130710 -11.530026 22.577284 0.062500 10.783000
O 12.263911 4.047234 4.887942 0.030492 -0.227140 0.394133 1.000000 -21.566000
H 12.379921 4.324115 4.984032 -7.144417 8.305680 4.702829 0.062500 10.783000
H 12.673208 3.398892 7.969497 7.247198 10.072561 0.212239 0.062500 10.783000
O 12.521364 3.182412 8.164957 0.116227 3.278261 3.346700 1.000000 -21.566000
H 12.696840 3.114074 8.407697 -1.684619 -2.658016 -4.056546 0.062500 10.783000
H 11.700502 10.620780 4.803976 -3.201335 12.841039 -0.269595 0.062500 10.783000
O 11.747729 10.341875 4.960488 0.415679 4.604604 -1.144201 1.000000 -21.566000
H 11.869110 10.150286 4.716375 -4.176590 -10.767437 8.756702 0.062500 10.783000
H 5.075428 2.147439 5.387820 4.294575 3.562470 3.656113 0.062500 10.783000
O 5.114529 2.189551 5.056974 -2.517052 -3.328858 -1.723309 1.000000 -21.566000
H 5.124164 2.512947 5.033888 3.092608 0.770792 -3.947767 0.062500 10.783000
H 14.418712 1.598999 9.368723 3.414357 3.725430 -0.127648 0.062500 10.783000
O 14.663592 1.796193 9.311329 -1.190158 -0.557288 -0.061392 1.000000 -21.566000
H 0.105983 1.842424 9.575260 4.332716 -1.200159 0.487378 0.062500 10.783000
H 1.761963 0.982477 4.878942 -0.725655 12.568437 2.774339 0.062500 10.783000
O 1.971191 0.784804 5.038086 -1.935762 0.122941 -0.989817 1.000000 -21.566000
H 1.951206 0.879342 5.343516 -8.746708 1.247417 0.585244 0.062500 10.783000
H 13.607561 2.291491 14.419635 -11.296542 8.885650 -15.722118 0.062500 10.783000
O 13.411501 2.155813 14.647631 -2.783259 -3.302426 -3.111630 1.000000 -21.566000
H 13.527903 2.170733 0.199131 -7.430540 -1.243418 -7.389894 0.062500 10.783000
H 14.040104 4.288021 9.176236 -3.358714 -1.093983 -12.296079 0.062500 10.783000
O 14.153682 4.070594 8.983784 -1.204292 0.045027 1.448816 1.000000 -21.566000
H 14.322601 4.252778 8.777863 2.016898 -13.314516 3.077249 0.062500 10.783000
H 7.743378 4.889443 1.713145 -6.352428 -4.518622 -7.017983 0.062500 10.783000
O 7.628429 4.585742 1.741008 -3.014736 2.766829 2.271931 1.000000 -21.566000
H 7.879738 4.362962 1.768429 10.951138 11.521437 -12.175426 0.062500 10.783000
H 14.594570 5.356799 2.671978 -1.443285 11.514193 9.796989 0.062500 10.783000
O 14.490171 5.086669 2.817043 -2.294405 0.156991 -1.360126 1.000000 -21.566000
H 14.400391 5.182502 3.110218 -9.431252 -1.576157 -4.841591 0.062500 10.783000
H 5.302950 7.037124 4.261680 1.715629 8.621295 -5.258428 0.062500 10.783000
O 5.007434 7.005396 4.383017 3.482278 2.277372 -1.323734 1.000000 -21.566000
H 5.033435 6.938764 4.702126 12.885295 1.225983 -4.094563 0.062500 10.783000
H 5.387560 3.057880 3.232051 10.372567 8.993973 -6.462004 0.062500 10.783000
O 5.533560 2.911416 3.472670 -1.909678 0.290879 0.525412 1.000000 -21.566000
H 5.370857 2.636613 3.503722 14.148210 0.656053 -2.568664 0.062500 10.783000
H 8.718800 14.532925 4.345530 11.079607 0.014317 1.392534 0.062500 10.783000
O 8.887249 0.037115 4.467295 0.974105 0.623018 -3.054579 1.000000 -21.566000
H 9.060191 0.166581 4.234738 -0.849062 -10.712415 18.948796 0.062500 10.783000
H 4.381725 14.287782 2.498348 11.463329 -6.959310 -1.255032 0.062500 10.783000
O 4.408460 14.145476 2.225510 -0.063368 -1.397368 -0.863340 1.000000 -21.566000
H 4.400240 13.841817 2.305279 6.150979 4.203815 5.431041 0.062500 10.783000
H 8.190217 1.903969 5.613938 -4.786748 5.261324 -2.224064 0.062500 10.783000
O 8.479019 2.007467 5.697512 -0.108054 5.208218 -2.010917 1.000000 -21.566000
H 8.634318 1.896608 5.448147 -5.926042 5.296045 8.716316 0.062500 10.783000
H 11.904159 11.019409 13.807462 -2.733782 -5.437025 -10.442375 0.062500 10.783000
O 12.198668 11.047992 13.920566 -0.671708 1.403493 -2.470675 1.000000 -21.566000
H 12.200383 11.060654 14.240584 20.887676 9.725188 5.493463 0.062500 10.783000
H 0.744841 6.986633 7.954750 1.339896 -0.386527 -1.409143 0.062500 10.783000
O 0.503966 6.834749 8.082568 -1.507910 1.014885 0.189257 1.000000 -21.566000
H 0.467444 6.549401 7.967438 -5.878611 -0.293586 10.707916 0.062500 10.783000
H 2.458753 0.370098 8.781015 6.624317 5.498132 5.767941 0.062500 10.783000
O 2.709984 0.504410 8.637902 -1.722684 2.036044 -0.547055 1.000000 -21.566000
H 2.617555 0.578155 8.328513 -5.992846 -2.398303 7.728290 0.062500 10.783000
H 3.572775 0.932821 9.099180 7.850072 -3.088365 -0.378734 0.062500 10.783000
O 3.757275 1.183967 9.017669 0.620306 -1.062940 1.679934 1.000000 -21.566000
H 3.556226 1.401674 8.866859 0.660204 -4.324064 0.472515 0.062500 10.783000
H 14.686597 6.369415 7.498426 -2.483942 3.900905 1.112446 0.062500 10.783000
O 14.531906 6.647678 7.431774 0.613845 1.172622 -0.109650 1.000000 -21.566000
H 14.391864 6.612400 7.148451 2.716909 9.934779 7.884249 0.062500 10.783000
H 1.246327 6.964893 5.399108 3.183437 -0.347021 15.517908 0.062500 10.783000
O 1.436112 6.728987 5.302769 -1.771964 2.419213 3.138255 1.000000 -21.566000
H 1.580611 6.620931 5.564513 -0.391353 -5.420927 1.055397 0.062500 10.783000
H 2.272109 5.873590 3.198945 7.296233 -2.554324 -6.557490 0.062500 10.783000
O 2.573684 5.765817 3.223713 -0.559764 1.170494 -3.048418 1.000000 -21.566000
H 2.593859 5.537528 3.456729 17.520166 15.947187 14.305803 0.062500 10.783000
H 7.802319 4.906617 3.881617 6.137290 -8.890713 8.763527 0.062500 10.783000
O 8.008808 5.116298 3.738461 2.099829 -3.366031 1.666712 1.000000 -21.566000
H 8.244242 4.913654 3.629793 6.144905 -3.392670 5.123908 0.062500 10.783000
H 5.677364 14.432144 4.925418 -1.523968 0.505947 17.619519 0.062500 10.783000
O 5.641454 14.664729 5.133666 3.147262 -0.667079 -1.644775 1.000000 -21.566000
H 5.512116 0.185152 4.963199 -6.920342 4.214286 7.535591 0.062500 10.783000
H 5.927880 3.544317 8.125702 1.624467 -8.074718 3.528720 0.062500 10.783000
O 5.962498 3.765474 8.366914 -3.906682 -2.892865 -0.897785 1.000000 -21.566000
H 5.895177 3.603000 8.655679 1.832277 4.245601 6.086684 0.062500 10.783000
H 6.101746 3.938128 6.183468 5.413492 -9.195837 5.081492 0.062500 10.783000
O 5.865982 4.073642 6.000263 -0.889296 -0.507615 0.187781 1.000000 -21.566000
H 5.929911 4.030286 5.688900 -9.604939 -6.105532 -2.051682 0.062500 10.783000
H 9.422284 3.548982 6.886453 4.321740 -7.156092 2.472679 0.062500 10.783000
O 9.545441 3.251346 6.931518 -1.667142 3.711950 0.812881 1.000000 -21.566000
H 9.345554 3.005328 6.852157 -5.286356 9.511152 8.046736 0.062500 10.783000
H 10.763712 4.458214 5.497194 14.092738 -4.865673 17.337252 0.062500 10.783000
O 10.761003 4.745102 5.617454 -4.829434 -2.138385 0.992774 1.000000 -21.566000
H 10.975074 4.929467 5.459695 6.471386 -2.510028 8.466609 0.062500 10.783000
H 8.460347 6.686547 7.655198 8.674922 2.765930 -4.515676 0.062500 10.783000
O 8.460995 6.824767 7.942045 1.447317 -1.797910 2.844991 1.000000 -21.566000
H 8.348550 6.655527 8.190551 1.439528 3.760296 1.502338 0.062500 10.783000
H 9.603735 4.300403 10.244945 -4.185791 -12.180275 -0.284350 0.062500 10.783000
O 9.931498 4.301063 10.288776 1.163611 -0.978390 -0.830647 1.000000 -21.566000
H 10.007960 4.009856 10.163581 -11.718721 10.274882 -2.283869 0.062500 10.783000
H 10.476837 1.723918 10.867946 -12.221344 -9.241011 -7.251626 0.062500 10.783000
O 10.425674 1.423900 10.763806 0.946844 -2.081840 -3.533325 1.000000 -21.566000
H 10.657037 1.293092 10.587053 -7.258676 0.726891 -7.984693 0.062500 10.783000
H 12.332076 2.467893 4.882689 0.947473 6.723598 -5.339874 0.062500 10.783000
O 12.364563 2.582634 5.182922 -4.565871 1.215672 2.310807 1.000000 -21.566000
H 12.065079 2.559164 5.308775 -2.383707 -3.344611 14.387320 0.062500 10.783000
H 11.892063 2.756794 8.912410 -9.630762 0.967326 1.554873 0.062500 10.783000
O 12.203139 2.732668 9.020033 1.521178 1.658721 -1.319661 1.000000 -21.566000
H 12.364470 3.014523 8.997351 9.438532 2.522929 6.504791 0.062500 10.783000
H 13.736033 2.158704 8.199800 -0.000727 4.069646 11.838216 0.062500 10.783000
O 13.515915 1.913589 8.144562 0.178232 -1.400500 0.368429 1.000000 -21.566000
H 13.577801 1.681958 8.375278 -3.068953 -13.017928 -9.711817 0.062500 10.783000
H 2.160476 0.557767 10.152658 4.939131 5.682856 0.673802 0.062500 10.783000
O 2.255227 0.702082 10.429951 -1.627471 -1.465595 -1.071749 1.000000 -21.566000
H 2.461476 0.931114 10.351274 -9.050418 4.566406 -2.755151 0.062500 10.783000
H 13.355344 5.293733 3.171505 -9.152424 8.884306 2.884349 0.062500 10.783000
O 13.475308 5.333811 3.467117 3.719704 -3.450252 -0.258563 1.000000 -21.566000
H 13.271528 5.527837 3.611255 0.343098 -2.899807 -2.228198 0.062500 10.783000
H 4.189356 3.054624 7.813797 -0.586291 6.882873 -4.065765 0.062500 10.783000
O 3.899336 3.177456 7.783663 -2.301804 -0.139827 -2.360266 1.000000 -21.566000
H 3.917559 3.392826 7.547659 1.322372 0.045709 -4.794581 0.062500 10.783000
H 5.110180 1.239954 6.543067 -3.645562 -2.104448 9.962033 0.062500 10.783000
O 5.298363 1.240309 6.280970 -0.899929 0.975277 -0.131201 1.000000 -21.566000
H 5.450490 0.958356 6.249957 -6.639317 1.365877 -6.653349 0.062500 10.783000
H 7.785951 5.994799 4.270542 -4.582189 -13.124646 -4.677015 0.062500 10.783000
O 7.563810 6.163915 4.117146 0.673046 -1.468951 -0.884114 1.000000 -21.566000
H 7.520304 6.032502 3.828028 12.474880 13.888220 -0.422969 0.062500 10.783000
H 3.991810 7.648257 7.056991 9.051720 10.114990 7.537674 0.062500 10.783000
O 3.672985 7.626113 7.110945 0.236684 2.487387 1.538997 1.000000 -21.566000
H 3.646068 7.335449 7.237817 3.129874 -4.310337 -7.606706 0.062500 10.783000
H 3.777253 10.239869 8.248014 1.184562 2.860643 11.749989 0.062500 10.783000
O 3.482860 10.295311 8.368861 0.596047 1.634980 -0.550182 1.000000 -21.566000
H 3.423454 10.607505 8.346418 3.455459 -0.343787 -2.258674 0.062500 10.783000
H 2.114734 10.173928 5.253116 -0.737255 -13.426993 -8.889872 0.062500 10.783000
O 1.955534 10.420916 5.119343 0.080982 -0.069004 0.497675 1.000000 -21.566000
H 1.862465 10.323754 4.827735 -9.114460 -11.984176 -7.404247 0.062500 10.783000
H 4.830750 8.869356 5.837427 -10.740251 -0.258960 -1.575404 0.062500 10.783000
O 5.087371 9.042837 5.936722 -2.035921 2.103612 0.171860 1.000000 -21.566000
H 5.181576 9.233338 5.696275 -5.709633 -10.092752 2.641767 0.062500 10.783000
H 9.441543 8.167329 7.454906 -8.061168 13.864398 -12.318582 0.062500 10.783000
O 9.674328 8.024874 7.261849 -2.862004 0.047105 -0.443322 1.000000 -21.566000
H 9.911056 8.231499 7.172522 -5.800673 13.550469 9.157966 0.062500 10.783000
H 7.881659 5.914211 1.793126 -3.402136 1.239267 -3.166620 0.062500 10.783000
O 8.099226 6.080746 1.998677 -0.626467 -0.579897 -1.393029 1.000000 -21.566000
H 8.066057 5.917287 2.267847 -2.484775 -2.227275 -4.876768 0.062500 10.783000
H 10.590950 2.570333 9.425947 7.915199 8.373023 -1.548770 0.062500 10.783000
O 10.520308 2.297519 9.575131 -0.955334 0.553116 -0.369621 1.000000 -21.566000
H 10.768524 2.245204 9.762530 -8.114663 -3.936165 -6.805366 0.062500 10.783000
H 9.776757 3.757985 9.249630 -6.925821 12.092535 11.390456 0.062500 10.783000
O 9.562213 3.565072 9.400933 1.999355 2.364105 -1.548212 1.000000 -21.566000
H 9.640060 3.270162 9.262794 -3.319941 -0.276337 2.978684 0.062500 10.783000
H 11.248500 4.202612 7.207601 4.436066 10.948914 -8.756617 0.062500 10.783000
O 11.407385 3.925334 7.192800 -2.213717 0.875090 -1.922149 1.000000 -21.566000
H 11.241822 3.741272 7.393167 3.373285 0.069943 12.469798 0.062500 10.783000
H 14.719892 1.950125 6.109039 -10.445755 -3.328439 -0.610842 0.062500 10.783000
O 14.505480 1.895473 6.344016 -1.540221 -0.334394 -1.697307 1.000000 -21.566000
H 14.495958 1.575104 6.414670 1.966566 -8.535102 -10.575998 0.062500 10.783000
H 3.267686 8.488178 2.559304 -10.586937 -0.675984 -4.651067 0.062500 10.783000
O 2.971053 8.376477 2.516356 0.743266 1.009328 3.688379 1.000000 -21.566000
H 2.924011 8.059682 2.583706 17.174907 -12.939259 15.139042 0.062500 10.783000
H 2.949847 1.777756 4.440485 -13.109538 3.192069 4.062334 0.062500 10.783000
O 2.734932 1.915270 4.630041 -0.362836 -0.291077 -2.286769 1.000000 -21.566000
H 2.903909 1.997762 4.904898 -2.250793 -0.045841 -10.358802 0.062500 10.783000
H 1.339283 6.191838 4.444908 10.120813 -5.157558 -1.218185 0.062500 10.783000
O 1.588125 6.226185 4.646817 0.070950 -1.352641 -1.313065 1.000000 -21.566000
H 1.508152 6.438205 4.890174 -0.491210 -10.054811 -0.464677 0.062500 10.783000
H 3.908539 4.933829 10.337378 -8.594703 -15.498176 -3.291765 0.062500 10.783000
O 4.024406 4.636384 10.251151 1.232677 1.408644 0.096078 1.000000 -21.566000
H 4.148694 4.678705 9.958388 1.036290 -3.048474 2.959145 0.062500 10.783000
H 4.055175 8.517186 5.991431 9.521419 3.335861 7.201036 0.062500 10.783000
O 3.925095 8.783046 6.104976 -0.497349 0.126746 -0.636374 1.000000 -21.566000
H 3.700055 8.694921 6.301982 1.212511 -2.257676 -1.782533 0.062500 10.783000
H 5.859362 3.321743 5.897348 13.859917 8.172794 -3.214552 0.062500 10.783000
O 5.652583 3.086966 5.835111 1.232245 -1.501821 2.120313 1.000000 -21.566000
H 5.879223 2.851844 5.815404 9.502384 -0.762954 -3.899139 0.062500 10.783000
H 5.839276 7.576821 7.287642 10.134128 7.200855 1.035024 0.062500 10.783000
O 5.836664 7.846349 7.451694 -1.963775 -0.708047 0.127491 1.000000 -21.566000
H 5.600634 8.044931 7.391755 6.590216 2.795902 5.894110 0.062500 10.783000
H 8.388440 8.372029 11.594343 -2.933704 0.987357 -8.433530 0.062500 10.783000
O 8.175330 8.257596 11.394313 -0.747264 -2.778542 -0.100686 1.000000 -21.566000
H 8.211750 7.941270 11.359536 4.371880 6.271741 -3.140771 0.062500 10.783000
H 13.093737 5.894981 2.301448 5.464380 3.361351 11.988362 0.062500 10.783000
O 13.013825 6.114386 2.540554 0.893873 -0.440121 -1.407608 1.000000 -21.566000
H 12.985966 6.419193 2.428411 6.698750 12.072347 4.325447 0.062500 10.783000
H 11.284626 12.016708 13.350669 -5.297705 -2.517703 7.627730 0.062500 10.783000
O 11.158395 11.793746 13.530246 -3.316514 -0.148116 1.144823 1.000000 -21.566000
H 11.220958 11.875204 13.836031 9.261076 3.558327 -7.253594 0.062500 10.783000
H 9.272570 9.947623 1.866803 4.795557 1.143068 -10.309482 0.062500 10.783000
O 9.144022 9.649714 1.807175 -0.434835 -1.093411 3.068034 1.000000 -21.566000
H 8.924394 9.583363 2.048130 -1.299274 6.178261 4.356884 0.062500 10.783000
H 9.856542 4.453768 5.178831 -10.418078 -15.565472 2.372101 0.062500 10.783000
O 9.635023 4.655706 5.300632 -0.309245 1.747252 -1.791428 1.000000 -21.566000
H 9.679970 4.942465 5.137888 -1.971191 3.231900 2.347093 0.062500 10.783000
H 12.849325 5.599652 7.742129 -3.350974 9.679015 -0.635792 0.062500 10.783000
O 12.663968 5.724072 7.956556 3.716922 0.664669 -0.318547 1.000000 -21.566000
H 12.394318 5.845969 7.831053 2.095522 -13.271251 9.636584 0.062500 10.783000
H 13.570324 5.130110 6.518685 -2.328966 -15.113559 7.195623 0.062500 10.783000
O 13.793259 5.125698 6.748439 1.665276 -2.966703 3.005194 1.000000 -21.566000
H 14.024457 5.353517 6.693108 10.295973 11.334810 -5.804413 0.062500 10.783000
H 13.605679 3.197500 2.977343 7.653363 0.458129 -10.850845 0.062500 10.783000
O 13.576521 2.932218 2.806926 0.576492 1.595343 0.714187 1.000000 -21.566000
H 13.729600 2.997142 2.533106 5.765710 -5.525168 -4.302624 0.062500 10.783000
H 4.769268 0.219929 6.668885 14.906470 11.933730 -1.667059 0.062500 10.783000
O 4.888040 0.187868 6.969645 3.528992 1.060191 1.353669 1.000000 -21.566000
H 5.175119 0.328213 7.044451 -0.257580 6.973122 15.181625 0.062500 10.783000
H 0.688789 9.128407 13.034824 17.152382 -4.553356 -1.668982 0.062500 10.783000
O 0.498078 8.890003 12.924934 1.607900 0.467867 -0.567423 1.000000 -21.566000
H 0.264501 8.975534 12.696668 0.252938 -5.270054 5.134207 0.062500 10.783000
H 2.682889 4.223483 6.564339 -9.121374 3.390730 8.830046 0.062500 10.783000
O 2.442710 4.234233 6.348150 0.230298 0.180000 0.647958 1.000000 -21.566000
H 2.263267 4.495049 6.377909 2.675949 -11.449089 1.242065 0.062500 10.783000
H 3.890231 5.216693 7.674698 0.011287 11.789122 3.173874 0.062500 10.783000
O 3.605377 5.158002 7.808074 3.294647 -1.667323 1.800097 1.000000 -21.566000
H 3.623871 4.890648 7.977198 -1.160882 -6.585487 7.060811 0.062500 10.783000
H 5.884589 13.334370 12.830478 -16.274258 10.850040 2.349558 0.062500 10.783000
O 5.629747 13.468703 12.667448 -2.310936 -1.968466 -0.937315 1.000000 -21.566000
H 5.375357 13.368940 12.839044 3.497846 7.825208 3.822996 0.062500 10.783000
H 4.160155 10.087438 4.286511 3.423182 -9.154131 -1.059275 0.062500 10.783000
O 3.895656 9.921732 4.309959 0.870048 1.630355 0.493858 1.000000 -21.566000
H 3.707806 10.077332 4.525577 5.220201 -7.540418 16.644844 0.062500 10.783000
H 3.731280 8.647788 14.132803 4.530132 4.258934 -1.232086 0.062500 10.783000
O 3.743316 8.969780 14.092238 3.494777 0.180457 2.437863 1.000000 -21.566000
H 3.468348 9.135734 14.049544 -0.271316 8.648702 -3.695856 0.062500 10.783000
H 1.939441 6.384753 2.261534 10.292401 6.672235 -5.559969 0.062500 10.783000
O 1.643104 6.410126 2.394286 1.480605 0.898444 -2.525607 1.000000 -21.566000
H 1.410919 6.451539 2.177222 4.660588 2.705059 2.588414 0.062500 10.783000
H 12.566711 2.129612 0.852121 2.466479 -0.243455 11.007816 0.062500 10.783000
O 12.485788 2.282654 1.118387 -1.271220 1.948303 -1.296089 1.000000 -21.566000
H 12.782014 2.376473 1.218574 0.160609 6.314078 6.285151 0.062500 10.783000
H 12.565396 8.842207 11.458094 -1.237923 6.609077 -1.803109 0.062500 10.783000
O 12.605975 8.611476 11.685902 -1.949559 -2.929463 0.962732 1.000000 -21.566000
H 12.848200 8.725613 11.848019 2.360977 5.011997 15.384266 0.062500 10.783000
H 8.419175 10.040410 3.919145 14.671909 2.154597 -3.792158 0.062500 10.783000
O 8.454065 9.857117 4.174874 -4.101390 0.114140 -0.926281 1.000000 -21.566000
H 8.695203 9.662263 4.109993 -5.617197 -7.189259 -15.120384 0.062500 10.783000
H 9.738292 8.118944 0.578959 -6.893790 0.992458 -8.122050 0.062500 10.783000
O 9.817486 8.357235 0.782641 -2.023955 0.005038 0.600466 1.000000 -21.566000
H 9.608919 8.298171 1.024437 -10.419974 6.251306 -1.590487 0.062500 10.783000
H 14.038271 9.668484 7.600897 -0.792477 3.098131 -15.692932 0.062500 10.783000
O 14.277432 9.890951 7.600487 0.728352 0.528661 1.365949 1.000000 -21.566000
H 14.552342 9.782355 7.464096 6.751467 -2.342307 6.502329 0.062500 10.783000
H 11.206113 3.857934 8.755735 11.965473 -1.966650 3.286591 0.062500 10.783000
O 11.511017 3.939250 8.817665 1.834027 -0.839965 -0.110598 1.000000 -21.566000
H 11.647175 3.963801 8.530261 8.655331 0.264572 10.363563 0.062500 10.783000
H 9.246236 3.875728 9.824000 -5.872020 0.316145 -7.990534 0.062500 10.783000
O 9.121249 4.092144 10.020883 -1.063269 -2.145336 -1.043482 1.000000 -21.566000
H 8.816236 4.105663 9.929804 4.242991 -4.899884 -1.736838 0.062500 10.783000
H 1.004815 3.277718 5.789171 -2.133780 -5.099851 1.791250 0.062500 10.783000
O 1.070354 3.603881 5.789575 -1.796868 1.130609 -0.016804 1.000000 -21.566000
H 1.366477 3.651569 5.685083 11.357187 6.323795 12.512525 0.062500 10.783000
H 12.163970 6.251578 5.533528 -8.501161 4.660265 -1.953797 0.062500 10.783000
O 12.374466 6.387027 5.736052 -2.184800 2.087163 -0.805283 1.000000 -21.566000
H 12.625219 6.524991 5.581407 11.073138 -9.777644 -4.706744 0.062500 10.783000
H 2.447854 10.446024 6.945571 4.348995 -1.938627 -5.618194 0.062500 10.783000
O 2.226401 10.637266 7.098589 -0.662083 -0.480534 -0.395437 1.000000 -21.566000
H 2.358913 10.923333 7.134151 6.467745 -10.937104 8.671426 0.062500 10.783000
H 5.711947 8.649805 8.452656 3.243254 -5.334435 -5.157128 0.062500 10.783000
O 5.670180 8.876144 8.676795 -1.393729 2.631514 -0.075934 1.000000 -21.566000
H 5.352793 8.874191 8.723302 6.015210 8.561354 -5.734270 0.062500 10.783000
H 1.352471 12.733368 6.457296 1.084153 12.184696 1.360390 0.062500 10.783000
O 1.348264 13.050910 6.516877 -0.504684 -0.433120 1.354009 1.000000 -21.566000
H 1.138349 13.048583 6.749717 8.229590 -4.234561 -5.123045 0.062500 10.783000
H 13.725502 12.427341 4.426217 -3.322286 -0.695453 4.037762 0.062500 10.783000
O 13.686130 12.372009 4.108340 2.624429 1.860011 2.215568 1.000000 -21.566000
H 13.709915 12.058101 4.073510 -21.732133 -9.169058 20.288399 0.062500 10.783000
H 1.096454 10.511060 0.845342 2.962239 5.155700 3.179280 0.062500 10.783000
O 0.922370 10.228279 0.812279 -0.166443 2.845628 2.110232 1.000000 -21.566000
H 0.786499 10.146178 1.097657 -7.392150 3.822318 7.923620 0.062500 10.783000
H 7.458160 11.014614 5.514139 -2.481807 -12.908109 2.084979 0.062500 10.783000
O 7.535097 10.917958 5.206886 -4.213602 -0.073280 -0.211438 1.000000 -21.566000
H 7.285620 10.813891 5.040502 -6.823639 13.725859 -7.134303 0.062500 10.783000
H 0.961859 5.822160 2.616504 4.631442 -2.834794 1.915089 0.062500 10.783000
O 0.757265 6.069692 2.636204 -1.658064 -1.902904 0.869363 1.000000 -21.566000
H 0.947856 6.329130 2.674482 -3.779913 6.758129 -21.403385 0.062500 10.783000
H 4.481186 11.494682 11.521986 16.695597 -8.171732 2.757510 0.062500 10.783000
O 4.494797 11.297600 11.761740 -2.521095 -2.782165 0.857792 1.000000 -21.566000
H 4.773213 11.146792 11.729697 -2.996869 3.345191 3.886238 0.062500 10.783000
H 10.092831 9.242049 13.818422 12.092870 7.750886 3.362226 0.062500 10.783000
O 10.258463 9.515174 13.772347 -1.070038 0.395529 1.434448 1.000000 -21.566000
H 10.035350 9.718105 13.903871 5.384940 7.932434 4.106614 0.062500 10.783000
H 11.482182 3.790264 3.721066 13.069953 6.858536 5.492731 0.062500 10.783000
O 11.357789 4.026968 3.552612 -1.621227 -1.452520 -0.048816 1.000000 -21.566000
H 11.155468 4.157095 3.762741 -9.603448 10.447832 0.193846 0.062500 10.783000
H 10.196901 14.046455 4.761321 6.088388 -1.910800 3.219676 0.062500 10.783000
O 9.992019 14.157023 4.988235 -0.391980 -1.267365 -1.586170 1.000000 -21.566000
H 9.986949 13.949259 5.233565 -11.707026 11.745833 -3.847302 0.062500 10.783000
H 10.178579 6.691658 4.186395 10.684449 -1.150217 11.875890 0.062500 10.783000
O 10.319929 6.945606 4.311780 1.470498 0.667761 -0.497998 1.000000 -21.566000
H 10.195121 6.994076 4.596028 -6.630509 -2.857009 12.400252 0.062500 10.783000
H 7.090498 7.172696 1.251203 -9.292964 1.340400 3.693111 0.062500 10.783000
O 7.054297 7.326209 0.971405 -3.453337 1.604203 -0.563782 1.000000 -21.566000
H 6.766021 7.271292 0.845671 4.588779 1.797837 10.875401 0.062500 10.783000
H 2.622729 9.752774 5.667680 9.330082 10.343188 -22.678638 0.062500 10.783000
O 2.424655 10.001681 5.725669 2.215168 -1.189564 -1.780543 1.000000 -21.566000
H 2.478483 10.108996 6.019266 -8.915272 -3.370571 -1.622079 0.062500 10.783000
H 0.318009 14.616753 4.378268 -4.468447 6.245379 -9.951519 0.062500 10.783000
O 0.431110 14.455613 4.632714 0.143487 0.437913 -3.381327 1.000000 -21.566000
H 0.370280 14.139024 4.617055 -9.977902 1.310775 12.911462 0.062500 10.783000
H 2.704696 0.565792 1.321321 4.136890 16.607056 -17.923157 0.062500 10.783000
O 2.852212 0.664890 1.594612 -0.093000 -1.108875 -1.475272 1.000000 -21.566000
H 2.703597 0.513539 1.833956 7.448862 0.212192 4.626028 0.062500 10.783000
H 3.144858 0.638665 14.297520 -10.388357 -0.024135 -6.698088 0.062500 10.783000
O 3.416680 0.801523 14.386781 -2.291872 0.403241 -2.218979 1.000000 -21.566000
H 3.603029 0.735815 14.120004 6.938742 -2.571691 8.026579 0.062500 10.783000
H 14.671267 10.952606 6.408697 -12.896247 5.132386 3.935900 0.062500 10.783000
O 14.647172 11.177967 6.643931 1.000401 -0.965033 0.112129 1.000000 -21.566000
H 14.356971 11.312138 6.607309 -2.118538 -9.538744 6.102083 0.062500 10.783000
H 0.292661 9.735086 6.026958 -2.642436 5.478807 -0.455896 0.062500 10.783000
O 14.726387 9.673917 6.146483 -0.166962 -1.382109 0.731122 1.000000 -21.566000
H 0.037214 9.681783 6.462786 -9.779378 2.599501 10.271955 0.062500 10.783000
H 10.824042 11.433321 13.636153 4.107776 4.538262 14.320168 0.062500 10.783000
O 10.645187 11.172079 13.685144 -1.142870 -0.170826 -1.596796 1.000000 -21.566000
H 10.844025 10.946777 13.611580 -1.751025 9.169447 0.854941 0.062500 10.783000
H 4.546682 9.662027 2.570477 7.510288 2.367000 -3.413855 0.062500 10.783000
O 4.467450 9.955564 2.469632 -1.848983 2.924140 -2.668270 1.000000 -21.566000
H 4.751454 10.106008 2.448250 9.930309 -17.532241 -0.666978 0.062500 10.783000
H 7.317097 8.460329 0.299488 -10.791456 -1.705419 -2.134369 0.062500 10.783000
O 7.157702 8.564422 0.553577 5.264415 -1.376530 -1.224328 1.000000 -21.566000
H 6.836703 8.550934 0.460667 9.477634 0.500753 -0.688729 0.062500 10.783000
H 4.661675 12.529888 6.348356 5.099024 1.801261 -2.056594 0.062500 10.783000
O 4.630362 12.854119 6.383947 0.674837 0.769135 1.119046 1.000000 -21.566000
H 4.537527 13.010432 6.109404 -2.112195 -5.855505 -3.767623 0.062500 10.783000
H 11.331229 14.430010 2.634626 6.585044 -3.797621 8.243434 0.062500 10.783000
O 11.106003 14.344305 2.424821 -0.572763 0.424960 4.030657 1.000000 -21.566000
H 11.246429 14.089202 2.292576 5.364580 6.705303 -3.461590 0.062500 10.783000
H 8.079182 6.691279 3.254164 -4.679238 0.727530 16.895310 0.062500 10.783000
O 8.318042 6.502784 3.150800 -0.338375 0.276006 -1.694960 1.000000 -21.566000
H 8.551877 6.492290 3.372008 9.691414 -5.228730 -6.860536 0.062500 10.783000
H 7.667454 9.044422 9.770925 8.136333 -2.524448 -3.307708 0.062500 10.783000
O 7.678695 8.829250 9.540656 -0.984334 -1.940419 -0.534304 1.000000 -21.566000
H 7.970619 8.694043 9.507087 -8.703647 2.157132 -8.250102 0.062500 10.783000
H 0.359228 9.300720 9.579114 -6.844009 -2.508075 2.068094 0.062500 10.783000
O 0.352801 9.637438 9.571813 -0.825865 -1.150537 -0.793178 1.000000 -21.566000
H 0.631127 9.733571 9.460403 -10.377803 -7.621639 8.113899 0.062500 10.783000
H 0.008026 8.248403 7.439164 1.971671 -5.289329 2.570653 0.062500 10.783000
O 0.223123 8.023548 7.542277 0.416058 0.124643 3.157815 1.000000 -21.566000
H 0.324778 8.113908 7.833168 8.586804 -6.295350 -2.265625 0.062500 10.783000
H 14.049873 6.986217 6.615688 -1.742126 4.305058 1.886846 0.062500 10.783000
O 14.150796 6.680203 6.656768 0.025343 1.760279 -1.347255 1.000000 -21.566000
H 14.274228 6.637586 6.373901 -18.670725 3.551134 -4.426694 0.062500 10.783000
H 1.855034 11.205183 0.172502 2.281143 -3.204810 3.395535 0.062500 10.783000
O 1.857429 11.112623 0.481826 0.038524 0.802942 -0.716863 1.000000 -21.566000
H 2.024064 10.838201 0.477325 0.762583 3.107926 0.171481 0.062500 10.783000
H 14.587248 7.140974 0.549135 3.659750 -1.869104 7.274732 0.062500 10.783000
O 14.391379 7.147218 0.811942 -0.472039 3.071365 -0.137932 1.000000 -21.566000
H 14.568921 7.300182 1.037311 0.348272 -3.418956 -3.897377 0.062500 10.783000
H 3.713393 0.118154 14.204839 0.902055 7.640853 -1.381089 0.062500 10.783000
O 3.934616 14.652641 14.333123 2.293605 1.447815 1.434246 1.000000 -21.566000
H 4.007700 14.450722 14.099894 4.726628 6.122455 3.077829 0.062500 10.783000
H 10.073111 12.276569 4.499712 -15.789093 7.208016 1.426088 0.062500 10.783000
O 10.276272 12.372852 4.724322 0.868353 -1.781760 0.233904 1.000000 -21.566000
H 10.341264 12.666162 4.612452 -6.119534 2.760182 -12.119849 0.062500 10.783000
H 14.211233 12.596148 7.854316 -11.744451 6.808223 2.014109 0.062500 10.783000
O 14.498047 12.679147 7.742439 0.603994 1.690757 1.753983 1.000000 -21.566000
H 14.530515 12.997668 7.694746 -8.060232 -1.925213 0.857464 0.062500 10.783000
H 5.705412 8.798684 7.467693 -4.237884 8.746742 -7.379710 0.062500 10.783000
O 5.490763 8.716047 7.681138 -2.665430 1.937775 0.927295 1.000000 -21.566000
H 5.618407 8.462677 7.854400 1.506875 8.479062 0.868595 0.062500 10.783000
H 10.193743 7.623563 8.384125 8.207175 -9.988288 -2.641650 0.062500 10.783000
O 10.380368 7.813490 8.208917 -0.122196 1.028219 -0.926156 1.000000 -21.566000
H 10.239687 8.099526 8.176133 -9.591849 -3.624725 4.878329 0.062500 10.783000
H 7.404833 7.961810 2.474648 14.295169 -3.397015 -13.119785 0.062500 10.783000
O 7.680532 7.995500 2.628783 -1.007149 2.993866 -0.011402 1.000000 -21.566000
H 7.647238 7.979077 2.936871 -7.943947 -1.332023 1.990233 0.062500 10.783000
H 2.959513 14.698122 3.233143 -8.170325 -0.567770 4.163124 0.062500 10.783000
O 2.992686 14.497239 2.991827 -2.014503 -4.260370 -7.010041 1.000000 -21.566000
H 3.274042 14.576661 2.867611 -15.379536 4.767273 2.038025 0.062500 10.783000
H 1.312340 9.233527 2.948504 0.409447 -20.038570 -7.286988 0.062500 10.783000
O 1.286581 9.112749 2.642081 0.649763 -0.190477 -2.293168 1.000000 -21.566000
H 1.553891 8.921639 2.575502 -1.467575 -3.333700 -18.823681 0.062500 10.783000
H 0.725924 14.553546 8.281325 -11.081140 19.489481 -6.204862 0.062500 10.783000
O 0.676281 14.507892 7.970917 2.719385 -3.458505 2.022567 1.000000 -21.566000
H 0.914017 14.311902 7.840915 -3.065988 5.095027 8.116301 0.062500 10.783000
H 11.156810 10.915691 1.405989 11.974850 4.212768 -3.172650 0.062500 10.783000
O 11.182500 10.783821 1.702024 0.319855 -1.165499 -0.355578 1.000000 -21.566000
H 11.173472 10.468614 1.647417 2.482479 -1.098366 3.511587 0.062500 10.783000
H 13.835061 12.597188 13.709019 3.609495 -11.848074 -12.018078 0.062500 10.783000
O 14.022331 12.705478 13.962528 -2.824839 0.658561 -0.137956 1.000000 -21.566000
H 14.090720 12.981718 13.827268 7.820218 1.839169 -4.969818 0.062500 10.783000
H 6.095645 12.622638 7.513948 4.783736 -5.594004 -7.977887 0.062500 10.783000
O 6.059342 12.333366 7.383000 0.133590 5.057494 -2.551012 1.000000 -21.566000
H 5.956708 12.151440 7.630300 14.133035 -1.883735 -16.821890 0.062500 10.783000
H 0.892413 9.603362 2.724406 -5.860500 3.763172 2.081658 0.062500 10.783000
O 0.815415 9.901335 2.793130 -0.427634 -0.051056 -1.126868 1.000000 -21.566000
H 0.748006 10.061161 2.521966 -0.249358 -3.167849 -1.087472 0.062500 10.783000
H 4.376935 9.332456 3.603813 13.121838 -7.977769 10.511542 0.062500 10.783000
O 4.668233 9.437046 3.624043 1.228081 -1.275083 2.245091 1.000000 -21.566000
H 4.799134 9.277355 3.855680 2.626797 -16.156220 -16.986616 0.062500 10.783000
H 2.129436 11.790915 8.097873 -4.329220 4.901989 6.168989 0.062500 10.783000
O 2.079480 11.665781 7.811875 0.873814 2.270247 2.954355 1.000000 -21.566000
H 1.806734 11.818435 7.711628 1.152683 10.423005 -1.890679 0.062500 10.783000
H 1.434910 0.217404 12.006212 -5.188843 2.967423 -12.368278 0.062500 10.783000
O 1.724878 0.363280 11.998016 3.474142 -0.085583 -3.074580 1.000000 -21.566000
H 1.856916 0.321451 11.716545 -3.128329 6.717787 -6.735075 0.062500 10.783000
H 13.043147 8.492592 10.465786 -14.435193 -22.276417 1.531923 0.062500 10.783000
O 13.344185 8.367610 10.518058 0.081692 -2.645494 -5.160382 1.000000 -21.566000
H 13.283343 8.060957 10.589960 -6.765929 -1.641252 1.650708 0.062500 10.783000
H 2.222530 10.603943 10.687900 7.588355 -2.172972 -13.203752 0.062500 10.783000
O 2.069083 10.371684 10.526475 1.350632 -1.725430 -4.334284 1.000000 -21.566000
H 1.754460 10.368472 10.559589 -0.653786 -1.477210 -3.179477 0.062500 10.783000
H 1.718208 0.157830 9.981423 2.661426 8.204675 0.429062 0.062500 10.783000
O 1.833243 0.376689 9.780588 0.478939 2.717576 0.152329 1.000000 -21.566000
H 1.592671 0.574396 9.729007 -7.706049 -7.164710 -0.177228 0.062500 10.783000
H 6.203787 10.264167 10.006814 7.202707 -2.006647 -3.949766 0.062500 10.783000
O 6.039953 10.163827 9.744878 0.253027 2.700425 -1.355234 1.000000 -21.566000
H 6.109155 9.855538 9.682816 -5.504951 11.198394 0.214144 0.062500 10.783000
H 7.846943 9.753450 7.096424 14.159794 2.137425 -6.089759 0.062500 10.783000
O 8.027906 9.543156 7.260343 -2.304573 -0.643749 -0.815190 1.000000 -21.566000
H 8.147409 9.666714 7.544332 -11.247961 -8.981445 5.304709 0.062500 10.783000
H 4.776877 14.353141 3.369673 -0.160586 -1.146489 -2.713580 0.062500 10.783000
O 5.050638 14.367853 3.530069 1.635053 1.476010 4.646866 1.000000 -21.566000
H 5.034302 14.505393 3.812418 12.240502 0.999127 2.572288 0.062500 10.783000
H 13.009657 0.138645 2.458631 3.262565 -12.596360 0.976016 0.062500 10.783000
O 12.944023 14.562231 2.486505 -1.854236 2.061446 -2.658203 1.000000 -21.566000
H 13.207008 14.408402 2.370342 -0.839112 -1.333738 -9.598196 0.062500 10.783000
H 11.408789 12.196320 4.295167 5.598258 -5.182082 -14.505504 0.062500 10.783000
O 11.562172 12.472590 4.269092 0.692336 0.341800 1.571925 1.000000 -21.566000
H 11.838806 12.463014 4.091484 6.242067 0.135421 3.827279 0.062500 10.783000
H 13.933354 10.435148 4.431064 -6.802522 -9.916758 -6.205838 0.062500 10.783000
O 13.708720 10.621356 4.308550 -1.559387 1.462189 -0.064900 1.000000 -21.566000
H 13.686288 10.504866 4.004622 7.602355 3.284806 9.320455 0.062500 10.783000
H 11.604330 2.365216 5.779015 4.517705 -9.423117 0.801463 0.062500 10.783000
O 11.524788 2.444497 5.473433 1.952981 -0.432927 -2.718736 1.000000 -21.566000
H 11.222669 2.328750 5.429428 -9.781762 0.919972 -14.323382 0.062500 10.783000
H 13.087068 0.542093 8.452299 -1.844640 -5.374846 0.998460 0.062500 10.783000
O 13.238592 0.534703 8.167679 -0.517931 -0.786848 2.219322 1.000000 -21.566000
H 13.409058 0.282098 8.092152 -0.491124 -3.393660 -4.022406 0.062500 10.783000
H 9.945150 10.876704 2.837776 -4.433398 4.482687 7.188939 0.062500 10.783000
O 10.262659 10.904254 2.796342 -4.832242 1.939152 -2.485505 1.000000 -21.566000
H 10.328439 11.043640 2.519131 8.081731 12.133775 4.086652 0.062500 10.783000
H 4.093233 0.180723 6.141472 -0.861322 6.202882 -0.867863 0.062500 10.783000
O 4.044979 14.706986 5.904020 -0.507744 1.995212 -1.332884 1.000000 -21.566000
H 4.270529 14.493208 5.926950 -6.052570 5.809891 -1.163747 0.062500 10.783000
H 10.112977 13.455261 14.132364 -2.078893 11.661954 9.546896 0.062500 10.783000
O 9.944228 13.654143 13.954526 1.469570 0.684354 -1.438527 1.000000 -21.566000
H 9.908232 13.904942 14.149763 9.159311 2.431060 3.690551 0.062500 10.783000
H 13.941801 11.085886 12.437807 3.739695 8.560248 2.609446 0.062500 10.783000
O 14.187510 10.895920 12.398193 2.793521 1.343552 -0.679197 1.000000 -21.566000
H 14.341613 10.858934 12.683063 -2.475581 3.995876 -6.895179 0.062500 10.783000
H 3.532440 11.981827 6.649813 -0.626148 0.819079 10.086620 0.062500 10.783000
O 3.399757 12.164462 6.876987 3.666590 3.622438 -2.718825 1.000000 -21.566000
H 3.114677 12.278962 6.754517 -11.216357 1.146572 -10.370604 0.062500 10.783000
H 4.457380 13.598014 4.037793 -6.421767 4.723427 -10.670453 0.062500 10.783000
O 4.724567 13.422290 4.003468 -1.761807 0.384295 -0.797425 1.000000 -21.566000
H 4.788120 13.299030 4.291573 -19.296862 -8.944106 -5.107049 0.062500 10.783000
H 9.674151 13.463600 5.722119 -11.275349 14.085967 -6.162529 0.062500 10.783000
O 9.975773 13.526873 5.620951 -3.359839 2.561510 -1.230470 1.000000 -21.566000
H 10.177238 13.429555 5.851527 0.785130 9.656531 8.432832 0.062500 10.783000
H 5.805638 13.322652 7.540665 5.597739 -12.617998 24.879291 0.062500 10.783000
O 5.476617 13.261342 7.541653 2.344020 5.272184 0.132951 1.000000 -21.566000
H 5.360880 13.313394 7.248591 -3.784574 1.670118 5.440181 0.062500 10.783000
H 5.158278 9.826735 4.369185 -3.249221 -4.826019 -12.707119 0.062500 10.783000
O 5.384298 9.610933 4.257389 2.202303 -0.119508 0.909843 1.000000 -21.566000
H 5.492095 9.742829 3.987798 -6.543094 17.678822 -3.495076 0.062500 10.783000
H 7.693143 11.644711 6.704364 2.543675 0.049754 -0.220770 0.062500 10.783000
O 7.391777 11.578101 6.822809 -1.765305 1.941672 -1.004026 1.000000 -21.566000
H 7.295499 11.867820 6.898873 4.737659 14.042883 17.092275 0.062500 10.783000
H 5.923025 12.975270 10.226417 -2.592473 -0.272076 -4.770688 0.062500 10.783000
O 5.636836 13.077225 10.093633 -1.981745 1.350519 -0.542589 1.000000 -21.566000
H 5.630533 13.401724 10.106228 -5.899872 7.979756 -5.744782 0.062500 10.783000
H 0.936603 2.161902 5.211573 -3.271562 -4.574922 28.547771 0.062500 10.783000
O 0.751221 2.366949 5.025909 1.436490 -1.244227 1.469744 1.000000 -21.566000
H 0.480070 2.196512 4.940999 -8.289042 2.536597 -2.871356 0.062500 10.783000
H 10.919983 2.698204 4.456830 -11.771039 -1.742759 -4.920022 0.062500 10.783000
O 10.682616 2.547494 4.307288 1.950343 -1.378501 -0.614678 1.000000 -21.566000
H 10.685755 2.575910 3.974551 5.050270 -4.648202 -14.575332 0.062500 10.783000
H 11.081995 0.484830 6.928350 25.735280 11.577154 -1.874378 0.062500 10.783000
O 11.012394 0.661303 7.202954 -1.573815 -4.465566 3.592972 1.000000 -21.566000
H 10.941002 0.962163 7.109700 -3.720561 -0.293315 -5.794558 0.062500 10.783000
H 10.669466 7.749834 1.837667 -1.888854 -1.984558 -4.497732 0.062500 10.783000
O 10.455387 7.577005 1.999034 0.918957 -1.133859 -4.858676 1.000000 -21.566000
H 10.193648 7.721683 2.051718 11.168546 -1.725823 9.891679 0.062500 10.783000
H 0.759168 1.515305 3.883015 3.335063 2.293821 1.532000 0.062500 10.783000
O 0.816493 1.593693 4.190158 0.810754 -1.016622 2.078460 1.000000 -21.566000
H 0.563165 1.749612 4.321523 -4.846422 -4.012419 0.053161 0.062500 10.783000
H 1.885959 13.764005 14.599009 -10.221298 -1.118559 -4.801555 0.062500 10.783000
O 2.158396 13.685960 14.436316 -5.285960 1.031512 3.291749 1.000000 -21.566000
H 2.136167 13.385841 14.328066 17.053063 -1.388893 -6.588047 0.062500 10.783000
H 1.604787 9.297162 11.792152 2.594445 -7.953456 3.403822 0.062500 10.783000
O 1.730342 9.547109 11.945948 -0.151640 0.599286 2.313275 1.000000 -21.566000
H 1.472041 9.686164 12.076386 1.114006 -14.550881 -0.511845 0.062500 10.783000
H 5.851860 10.457781 7.431045 7.910756 -9.415776 8.477810 0.062500 10.783000
O 5.657255 10.398136 7.687256 2.949618 0.411357 1.026416 1.000000 -21.566000
H 5.420951 10.224166 7.546821 -2.732863 1.650117 1.331466 0.062500 10.783000
H 5.166868 10.573140 8.070077 -9.467623 0.188967 3.657399 0.062500 10.783000
O 4.936641 10.707631 8.260310 2.340848 -3.010535 2.334101 1.000000 -21.566000
H 5.077382 10.963607 8.411829 5.210843 -2.533386 -8.491164 0.062500 10.783000
H 7.302409 12.110079 4.311622 -4.609613 8.944421 -7.829400 0.062500 10.783000
O 7.531367 12.111778 4.540879 -0.072250 -0.107697 0.599079 1.000000 -21.566000
H 7.798850 12.200707 4.386979 3.809443 7.094924 -5.047860 0.062500 10.783000
H 7.869520 8.881920 1.761869 17.449936 -4.778162 -0.816800 0.062500 10.783000
O 8.061111 8.779554 1.992320 -0.845710 1.316667 4.180553 1.000000 -21.566000
H 8.232087 8.535398 1.879210 5.530340 5.936728 -11.187154 0.062500 10.783000
H 6.043876 8.738666 8.980958 0.325716 -3.699791 -1.336786 0.062500 10.783000
O 6.272583 8.634370 9.203177 -1.190524 -0.612987 0.536589 1.000000 -21.566000
H 6.533114 8.536727 9.049132 5.792911 9.425639 -0.711387 0.062500 10.783000
H 6.575273 1.962435 8.758904 0.489830 2.386426 0.330386 0.062500 10.783000
O 6.375764 1.868598 8.536040 0.320780 -1.221163 3.479066 1.000000 -21.566000
H 6.138055 2.077215 8.503895 7.760116 2.947606 -5.399420 0.062500 10.783000
H 8.684333 3.159810 1.901717 -2.144322 2.923310 -0.890449 0.062500 10.783000
O 8.909405 3.043172 1.700646 3.166525 0.141418 0.839435 1.000000 -21.566000
H 8.775507 2.764154 1.582981 1.135432 -8.570810 -3.317364 0.062500 10.783000
H 10.454286 13.132021 4.181481 -1.980695 2.001220 -5.894172 0.062500 10.783000
O 10.422775 13.256390 4.483826 -2.177101 0.457397 -0.219825 1.000000 -21.566000
H 10.699193 13.316170 4.628681 4.686267 -2.872835 0.167076 0.062500 10.783000
H 13.645738 4.457106 12.314946 1.431085 -1.192483 -0.827954 0.062500 10.783000
O 13.404906 4.373034 12.518438 1.411167 1.756113 -1.459834 1.000000 -21.566000
H 13.309545 4.650859 12.649883 2.237812 -0.548803 6.451707 0.062500 10.783000
H 11.668526 2.601851 0.281106 -7.287648 -4.098531 -3.072229 0.062500 10.783000
O 11.534907 2.753215 0.525266 2.279555 -1.374664 -1.610927 1.000000 -21.566000
H 11.227636 2.639310 0.523736 -15.787538 -12.214165 1.855172 0.062500 10.783000
H 2.940973 10.617788 4.259808 3.119101 8.492586 12.900655 0.062500 10.783000
O 2.628642 10.641715 4.252082 0.618013 2.544999 -0.748036 1.000000 -21.566000
H 2.532018 10.737041 4.539200 -11.813019 -1.759024 -0.903811 0.062500 10.783000
H 0.113815 14.492436 5.157506 2.826695 7.464905 -9.080758 0.062500 10.783000
O 0.029789 14.580323 5.452984 1.950558 -2.012114 0.336482 1.000000 -21.566000
H 14.654775 0.146502 5.428167 3.657810 4.717118 9.688487 0.062500 10.783000
H 13.298981 9.181196 5.702192 10.321669 -0.083130 13.649076 0.062500 10.783000
O 13.186524 8.911124 5.829529 -0.985357 -2.153781 0.792055 1.000000 -21.566000
H 13.135715 8.723941 5.582311 8.522346 -0.716060 -6.933693 0.062500 10.783000
H 0.162236 1.436787 1.856758 -0.564342 -1.830891 1.171816 0.062500 10.783000
O 0.225181 1.740062 1.789805 -2.218454 1.482393 3.042268 1.000000 -21.566000
H 0.497658 1.742177 1.617715 -10.382069 6.733665 -7.655651 0.062500 10.783000
H 8.527486 12.677700 7.501337 7.433803 5.993274 1.479277 0.062500 10.783000
O 8.772641 12.564388 7.309806 -1.648981 -0.843161 1.048954 1.000000 -21.566000
H 8.698172 12.409488 7.029581 -3.627491 9.686069 -0.343792 0.062500 10.783000
H 5.957426 14.118848 11.918792 -5.659327 -7.397087 -2.244107 0.062500 10.783000
O 5.685565 13.955899 11.880456 1.191138 0.484418 -0.532997 1.000000 -21.566000
H 5.552369 13.853593 12.156788 8.427465 -11.532832 -3.772220 0.062500 10.783000
H 3.220736 12.794982 5.067236 2.734250 -2.497678 5.712257 0.062500 10.783000
O 3.068708 12.932274 5.288654 3.062977 -0.304741 1.242635 1.000000 -21.566000
H 2.952063 12.668694 5.443121 7.582115 -5.960085 -4.054718 0.062500 10.783000
H 5.871468 13.411235 6.032282 5.832441 -11.350170 -14.508854 0.062500 10.783000
O 5.641958 13.636595 6.063411 2.120442 2.287240 -1.181517 1.000000 -21.566000
H 5.426566 13.584659 6.296668 2.847612 5.817481 -6.501220 0.062500 10.783000
H 3.753490 10.348613 10.828599 4.981832 7.183990 -5.692753 0.062500 10.783000
O 3.964874 10.589502 10.887380 3.076118 5.041197 0.086581 1.000000 -21.566000
H 4.274540 10.488389 10.838647 -1.908283 -15.465488 -4.695295 0.062500 10.783000
H 6.791306 9.605518 4.517821 0.704113 -10.541964 -3.835596 0.062500 10.783000
O 6.791802 9.865753 4.705275 0.198574 -1.838594 4.102949 1.000000 -21.566000
H 6.893246 9.787664 4.999753 8.094403 14.448892 4.161215 0.062500 10.783000
H 5.875349 11.284776 6.837020 -15.578022 -10.057438 5.341610 0.062500 10.783000
O 5.756304 11.233749 7.127543 1.757054 1.068252 -2.308634 1.000000 -21.566000
H 5.984189 11.031880 7.243353 9.918693 7.180570 17.933740 0.062500 10.783000
H 7.697313 4.435499 5.356104 -0.638986 -2.289303 5.505429 0.062500 10.783000
O 7.493742 4.628615 5.525870 1.086368 3.756558 1.550953 1.000000 -21.566000
H 7.708821 4.802331 5.678296 -1.718014 -2.127952 -6.000335 0.062500 10.783000
H 6.386882 4.237765 4.418154 -1.181294 11.098642 -2.620542 0.062500 10.783000
O 6.622905 4.416800 4.568188 1.620993 0.206863 -3.573959 1.000000 -21.566000
H 6.504814 4.699737 4.517634 2.172905 -4.530452 12.656701 0.062500 10.783000
H 10.537941 1.991086 6.140549 -14.588455 -3.276065 -1.757434 0.062500 10.783000
O 10.333515 2.123579 6.341828 -1.262402 -0.710372 -0.820869 1.000000 -21.566000
H 10.186666 2.320314 6.131593 -4.867534 -12.235207 -9.818106 0.062500 10.783000
H 13.267112 3.696991 3.504835 1.706045 15.048314 -1.020536 0.062500 10.783000
O 12.991023 3.748039 3.638476 0.359206 1.696876 2.799050 1.000000 -21.566000
H 12.946481 4.043974 3.737190 -2.882321 -7.446971 2.513844 0.062500 10.783000
H 5.308722 12.687690 11.334339 -2.895302 -3.243049 -5.208856 0.062500 10.783000
O 5.281776 12.920292 11.565872 2.347480 -4.257469 -0.730159 1.000000 -21.566000
H 5.101567 13.146031 11.406336 -2.625393 5.721730 -13.557513 0.062500 10.783000
H 2.712111 11.109372 5.260232 -0.185244 -13.895229 5.942356 0.062500 10.783000
O 2.712735 10.847461 5.093948 0.993382 1.037766 2.594703 1.000000 -21.566000
H 2.503889 10.640183 5.230870 1.882097 3.899416 1.041648 0.062500 10.783000
H 5.434857 11.454039 8.943280 -0.100229 -13.026221 4.399310 0.062500 10.783000
O 5.295712 11.297213 8.687149 -2.170499 -0.289619 -1.246999 1.000000 -21.566000
H 5.066276 11.506828 8.613940 -9.757206 -3.942680 4.840199 0.062500 10.783000
H 7.276450 11.856526 3.046239 -7.831118 -1.196095 8.752459 0.062500 10.783000
O 6.989332 11.867386 3.170721 1.266164 -0.439589 -2.489625 1.000000 -21.566000
H 6.991791 11.731542 3.451448 7.796214 2.081838 -9.272685 0.062500 10.783000
H 0.025139 4.133998 4.545947 10.058306 -4.810686 -4.436005 0.062500 10.783000
O 0.154367 4.285595 4.800344 -2.559658 -0.699430 -1.204496 1.000000 -21.566000
H 0.063949 4.175818 5.089719 -0.865335 0.968777 -4.173633 0.062500 10.783000
H 4.826797 11.471558 1.361578 7.224156 -2.624649 2.843463 0.062500 10.783000
O 4.925268 11.404776 1.067626 0.722012 5.564816 -0.560357 1.000000 -21.566000
H 4.764084 11.615302 0.891409 -0.906135 7.781189 -5.569239 0.062500 10.783000
H 2.680809 12.026412 12.509312 14.830170 -4.734337 -9.152434 0.062500 10.783000
O 2.503158 12.076679 12.232049 -1.025839 1.917005 1.852278 1.000000 -21.566000
H 2.689423 11.971368 11.997195 -2.213061 -7.789916 10.640999 0.062500 10.783000
H 7.979143 0.869065 3.922239 -7.787407 -0.870201 -4.740278 0.062500 10.783000
O 8.079261 1.143812 3.813989 0.898844 3.484658 -1.418626 1.000000 -21.566000
H 8.370426 1.105731 3.698495 -1.493160 -5.208106 4.890872 0.062500 10.783000
H 1.996198 3.676658 3.637270 4.222467 5.911486 4.658710 0.062500 10.783000
O 1.716237 3.679021 3.773779 -1.672192 -1.309349 -0.721602 1.000000 -21.566000
H 1.583229 3.954494 3.695846 -4.212153 11.989547 -0.136867 0.062500 10.783000
H 14.623518 13.896627 2.415119 -5.353710 1.378943 -0.454458 0.062500 10.783000
O 0.065857 13.993781 2.148222 1.997474 3.736132 -1.120767 1.000000 -21.566000
H 14.602150 14.115924 1.949260 9.113859 -4.481160 1.983057 0.062500 10.783000
H 4.447413 6.850147 1.378759 14.465311 6.658419 -0.903026 0.062500 10.783000
O 4.225376 6.716944 1.548858 -2.259376 2.356878 1.282693 1.000000 -21.566000
H 4.361475 6.458389 1.668443 -5.531270 -4.749715 -13.259620 0.062500 10.783000
H 9.565688 0.939270 5.796695 -16.017488 -8.756121 -4.797621 0.062500 10.783000
O 9.806097 1.150918 5.763546 2.342611 0.043240 0.248856 1.000000 -21.566000
H 9.938859 1.226821 6.037821 14.265368 -0.876765 6.887812 0.062500 10.783000
H 14.182811 1.209869 14.144410 -2.967600 -0.020857 -2.542452 0.062500 10.783000
O 14.237696 1.223872 13.825103 0.051762 1.895744 -3.747055 1.000000 -21.566000
H 14.230740 1.527026 13.734042 13.163905 3.279745 6.884714 0.062500 10.783000
H 8.692603 3.628044 1.520602 -10.914961 -7.251553 5.685905 0.062500 10.783000
O 8.649854 3.948754 1.500146 3.828162 0.246285 3.355129 1.000000 -21.566000
H 8.507244 4.048424 1.781604 -15.777668 4.450357 1.203809 0.062500 10.783000
H 12.759583 0.054049 5.099553 14.827081 3.561459 0.399480 0.062500 10.783000
O 12.653026 14.584392 5.328467 1.111732 2.650403 0.084471 1.000000 -21.566000
H 12.403338 14.429422 5.205503 -0.816807 6.692240 -0.361738 0.062500 10.783000
H 11.845581 2.737569 6.589553 -18.277316 -1.087287 4.193561 0.062500 10.783000
O 12.036571 2.955999 6.721753 -1.455689 4.275145 1.633732 1.000000 -21.566000
H 11.962733 3.037090 7.023652 -6.172148 3.391592 -0.499830 0.062500 10.783000
H 1.713779 1.898035 4.000835 1.492676 5.167049 -1.110901 0.062500 10.783000
O 1.479078 2.110565 3.911930 -0.310522 -2.686101 0.421284 1.000000 -21.566000
H 1.179121 1.992400 3.982440 4.580577 0.886623 -4.953222 0.062500 10.783000
H 5.783949 2.240529 1.176298 9.268769 13.252080 21.907762 0.062500 10.783000
O 5.503972 2.230223 1.356872 -0.159984 -0.504182 -1.376030 1.000000 -21.566000
H 5.578627 2.029307 1.608071 2.092979 4.549703 -7.665650 0.062500 10.783000
H 3.407163 12.525864 12.091586 -1.436286 2.217333 -8.893991 0.062500 10.783000
O 3.512738 12.735531 12.310908 2.686560 -0.250484 1.276886 1.000000 -21.566000
H 3.738958 12.609229 12.506885 -3.308158 -17.453408 -0.072271 0.062500 10.783000
H 1.751131 0.895351 12.842739 -0.542927 12.966017 -4.038472 0.062500 10.783000
O 1.986393 0.683001 12.768276 -0.960677 3.417437 0.552446 1.000000 -21.566000
H 1.933805 0.566499 12.473087 9.648168 1.927549 3.495493 0.062500 10.783000
H 4.451376 11.917192 2.926410 2.654864 -3.799509 -3.877820 0.062500 10.783000
O 4.676558 12.141668 2.859675 1.338151 1.811407 -0.606128 1.000000 -21.566000
H 4.605537 12.381191 2.676065 -4.331317 -3.214117 17.129792 0.062500 10.783000
H 11.562187 2.811422 12.338488 -7.770594 -2.774006 -0.246008 0.062500 10.783000
O 11.270997 2.930499 12.298922 1.099813 1.478958 -0.205452 1.000000 -21.566000
H 11.319944 3.204215 12.138953 13.436940 -10.195048 -3.859930 0.062500 10.783000
H 4.317484 13.176873 5.571592 2.265750 0.652208 6.737665 0.062500 10.783000
O 4.479086 13.429111 5.682238 -1.950362 -2.956755 -2.865557 1.000000 -21.566000
H 4.527772 13.650721 5.453278 0.253061 5.028321 -2.174605 0.062500 10.783000
H 6.289581 3.800017 5.122353 -0.905840 -5.433557 -1.253463 0.062500 10.783000
O 5.979094 3.872236 5.175021 1.914990 1.233347 -3.200396 1.000000 -21.566000
H 5.817476 3.902529 4.894317 3.560399 -10.551331 -4.287604 0.062500 10.783000
H 5.769111 0.420391 3.505249 -2.725722 -2.750606 -9.798665 0.062500 10.783000
O 5.977843 0.345972 3.260688 1.226457 1.215666 -2.466403 1.000000 -21.566000
H 6.087839 0.600244 3.103234 8.846368 -2.950311 -5.198469 0.062500 10.783000
H 7.564842 13.551083 4.006083 0.796862 -1.388004 -6.299475 0.062500 10.783000
O 7.879514 13.594827 4.010948 -1.772313 -5.927127 -2.631670 1.000000 -21.566000
H 8.016713 13.337281 3.890594 16.952380 0.821976 -4.604596 0.062500 10.783000
H 8.111253 2.974654 3.816320 -1.327985 -13.923908 -9.610668 0.062500 10.783000
O 8.021930 3.137221 3.562109 0.441004 1.674514 -0.370415 1.000000 -21.566000
H 8.227972 3.123431 3.319122 6.823349 8.613281 -5.869194 0.062500 10.783000
H 9.782844 9.509360 6.228235 14.704015 -2.126684 5.724028 0.062500 10.783000
O 10.090660 9.528891 6.261504 3.160880 -1.368353 3.331172 1.000000 -21.566000
H 10.209228 9.789070 6.397874 7.993267 4.522464 -4.632833 0.062500 10.783000
H 2.647866 5.315999 1.241682 11.579791 2.821651 -4.076555 0.062500 10.783000
O 2.609264 5.502968 1.512401 0.937590 0.943127 -0.020145 1.000000 -21.566000
H 2.376716 5.326867 1.688251 -4.016185 -1.315220 -2.509055 0.062500 10.783000
H 13.613623 2.079560 1.811441 9.322505 -1.474922 3.628248 0.062500 10.783000
O 13.642342 1.860851 1.577090 -1.444723 -1.553100 0.777920 1.000000 -21.566000
H 13.770694 1.618589 1.722206 7.691239 11.247875 -0.247554 0.062500 10.783000
H 10.467079 3.934252 4.983861 0.060506 2.816740 -3.713105 0.062500 10.783000
O 10.151080 3.985042 4.949282 0.195705 -1.839542 -1.895142 1.000000 -21.566000
H 10.039953 4.085676 4.655533 -6.699399 9.544053 -3.979870 0.062500 10.783000
H 1.376727 14.548770 3.021510 -2.735728 -2.398751 0.143771 0.062500 10.783000
O 1.089672 14.613718 2.879588 3.974583 -0.229806 -3.454703 1.000000 -21.566000
H 0.889768 14.682128 3.113812 -1.839932 3.545873 -5.357301 0.062500 10.783000
H 2.892154 2.786344 5.196543 -3.275962 1.818836 14.079638 0.062500 10.783000
O 3.181761 2.786865 5.331425 -1.363897 -1.053815 1.940617 1.000000 -21.566000
H 3.237971 3.092801 5.259105 3.552743 2.738130 4.305815 0.062500 10.783000
H 13.286771 6.247192 7.206894 6.622065 9.704564 4.920105 0.062500 10.783000
O 13.462433 6.125167 6.968443 -0.289593 -1.431085 1.215021 1.000000 -21.566000
H 13.692277 6.333826 6.883970 6.083818 3.064919 5.929141 0.062500 10.783000
H 5.701862 0.827369 5.383141 1.770158 -6.637668 -9.507666 0.062500 10.783000
O 5.429697 0.995220 5.460539 0.549234 -0.744009 -1.401131 1.000000 -21.566000
H 5.463719 1.186087 5.706165 -4.375560 -0.982940 -1.462820 0.062500 10.783000
H 12.193737 2.822151 9.993072 6.082388 0.538341 -10.257897 0.062500 10.783000
O 12.321705 2.576848 9.838483 1.056719 1.408961 -1.739198 1.000000 -21.566000
H 12.265133 2.607585 9.516954 -23.518320 0.269082 4.562785 0.062500 10.783000
H 5.229242 6.452316 1.686100 1.016558 2.936838 -1.345810 0.062500 10.783000
O 5.264601 6.423284 1.995237 -0.109908 0.531314 -2.547270 1.000000 -21.566000
H 5.595017 6.439385 2.016761 17.639988 10.872877 -13.303505 0.062500 10.783000
H 4.713334 1.963245 4.694269 8.944053 -4.604565 0.479077 0.062500 10.783000
O 4.474351 1.907738 4.484796 2.244775 -1.503553 0.014967 1.000000 -21.566000
H 4.377478 1.607771 4.521933 4.146240 -8.651234 -13.117835 0.062500 10.783000
H 1.418807 2.739996 2.430759 -4.642628 6.246501 0.367113 0.062500 10.783000
O 1.599337 2.533146 2.261237 0.934323 -4.628059 -2.689230 1.000000 -21.566000
H 1.876044 2.659120 2.181343 -9.365363 4.749562 -6.385046 0.062500 10.783000
H 12.936355 0.200375 12.210105 1.568263 7.490097 -1.178831 0.062500 10.783000
O 13.179899 0.390175 12.128405 -1.438478 -0.664328 3.311090 1.000000 -21.566000
H 13.413865 0.381767 12.347293 2.671990 -5.323469 3.055373 0.062500 10.783000
H 8.326896 6.509985 8.915482 -9.340297 -1.323736 5.143056 0.062500 10.783000
O 8.126904 6.415934 8.686828 0.712907 1.625257 -3.868386 1.000000 -21.566000
H 7.841992 6.502091 8.811475 -16.403785 15.908139 -12.984206 0.062500 10.783000
H 12.280927 6.633470 4.724593 2.030349 -5.578904 8.056905 0.062500 10.783000
O 12.256437 6.371684 4.540466 -2.143153 -0.005392 2.086508 1.000000 -21.566000
H 12.071292 6.495228 4.303793 13.284645 -4.030089 -7.935635 0.062500 10.783000
H 0.035649 7.548729 4.104620 1.366919 7.980806 26.498678 0.062500 10.783000
O 0.014791 7.248162 3.976193 -4.501251 2.718697 1.639885 1.000000 -21.566000
H 14.504725 7.092807 4.101200 -4.829991 -10.091725 -4.636068 0.062500 10.783000
H 11.235673 7.237922 8.878635 1.887376 4.089502 -8.380137 0.062500 10.783000
O 11.268492 6.940691 8.998094 -2.848448 3.982836 -0.051357 1.000000 -21.566000
H 10.983195 6.824053 8.965247 6.126959 -15.036172 2.013460 0.062500 10.783000
H 13.371118 7.459623 8.131919 -3.224785 0.510393 -5.669899 0.062500 10.783000
O 13.568142 7.217888 8.064880 0.995416 0.477549 -0.127504 1.000000 -21.566000
H 13.756891 7.336852 7.837173 -3.603111 6.780025 1.338730 0.062500 10.783000
H 8.155641 4.445301 2.389062 2.181990 2.961307 1.589368 0.062500 10.783000
O 8.240404 4.162648 2.262351 -0.880697 -2.605357 -1.528629 1.000000 -21.566000
H 7.981356 3.973660 2.262862 -1.831425 3.526514 -4.391738 0.062500 10.783000
H 0.336165 6.381848 10.557236 4.018229 8.647160 -1.335100 0.062500 10.783000
O 0.528428 6.620809 10.519572 -2.441535 0.478349 -0.997110 1.000000 -21.566000
H 0.430875 6.901586 10.648682 -5.744326 3.057380 0.782952 0.062500 10.783000
H 5.687453 5.782292 3.857203 5.982274 10.967468 4.447721 0.062500 10.783000
O 5.786063 5.596766 3.609766 -3.846487 0.019047 -0.697844 1.000000 -21.566000
H 5.986713 5.394847 3.759019 -4.669560 13.774387 0.320816 0.062500 10.783000
H 8.216270 1.995701 7.159024 -13.357157 -6.556210 -0.519473 0.062500 10.783000
O 8.176135 1.873534 6.873137 0.325552 -0.269556 -2.026688 1.000000 -21.566000
H 8.066874 2.111348 6.695233 -0.143206 -6.306791 -0.930843 0.062500 10.783000
H 12.529968 3.604072 9.184225 -2.722241 0.203211 11.150495 0.062500 10.783000
O 12.733588 3.429789 8.983275 -2.457845 -0.354474 1.298856 1.000000 -21.566000
H 12.903297 3.646318 8.813427 7.560506 -6.059589 5.552387 0.062500 10.783000
H 12.949847 6.911189 7.129787 16.367731 -0.843557 4.752385 0.062500 10.783000
O 12.881574 6.998027 6.819408 1.971010 -0.906537 2.891216 1.000000 -21.566000
H 12.697712 6.749408 6.722024 1.217301 -3.776903 -1.143041 0.062500 10.783000
H 5.749302 4.552167 5.966587 5.264408 2.456759 3.515158 0.062500 10.783000
O 5.641389 4.864916 5.950786 -1.802167 1.763777 -1.624016 1.000000 -21.566000
H 5.900350 5.032641 6.006625 -1.723291 0.457111 11.462660 0.062500 10.783000
H 4.868674 3.662648 6.743934 13.121402 6.116116 1.334612 0.062500 10.783000
O 4.752960 3.414305 6.913929 1.172603 3.344862 0.397330 1.000000 -21.566000
H 4.927271 3.368447 7.189360 6.853878 8.959958 -7.023517 0.062500 10.783000
H 9.230038 3.626379 3.297857 -0.884556 1.460462 -3.845321 0.062500 10.783000
O 9.362098 3.713498 3.570589 2.070047 1.700532 0.407591 1.000000 -21.566000
H 9.149110 3.850976 3.777010 1.078881 3.514351 -5.205767 0.062500 10.783000
H 6.969168 4.999065 6.529941 -6.847038 5.286824 -3.337885 0.062500 10.783000
O 7.146167 5.161556 6.736914 -3.132781 0.625569 0.938174 1.000000 -21.566000
H 7.410346 4.979425 6.831693 8.568961 -21.472992 -2.590537 0.062500 10.783000
H 10.388649 3.834152 6.808745 -1.279676 -12.901384 8.808308 0.062500 10.783000
O 10.383281 3.620870 6.571767 -3.777454 0.192891 -0.523323 1.000000 -21.566000
H 10.169199 3.403646 6.654144 4.004448 9.044730 -9.912726 0.062500 10.783000
H 10.162227 4.202709 7.399923 -11.283273 -1.298977 -18.550409 0.062500 10.783000
O 10.478540 4.214079 7.342462 6.117271 0.751227 -1.113550 1.000000 -21.566000
H 10.622162 4.458863 7.183395 4.437554 -8.026601 -2.550125 0.062500 10.783000
H 13.502741 6.271994 14.523283 3.529448 -10.223634 -7.089024 0.062500 10.783000
O 13.219993 6.152238 14.616284 0.507786 -1.811769 -0.317132 1.000000 -21.566000
H 13.121949 6.296313 0.154087 -4.970715 8.406591 -10.985134 0.062500 10.783000
H 10.219149 2.964111 8.926307 5.898758 7.001683 0.774791 0.062500 10.783000
O 9.883225 2.999841 8.907272 -1.341022 2.144072 0.128708 1.000000 -21.566000
H 9.831654 3.101438 8.610585 -4.003505 13.614649 -10.820637 0.062500 10.783000
H 13.047967 3.583215 7.361064 -10.103059 1.960757 -6.481838 0.062500 10.783000
O 12.989596 3.733000 7.636504 1.034846 0.344197 -2.299067 1.000000 -21.566000
H 13.258652 3.818314 7.794159 -11.411597 9.185279 11.869528 0.062500 10.783000
H 2.590868 3.361290 7.366425 1.448982 6.118431 0.225417 0.062500 10.783000
O 2.658869 3.604429 7.564475 1.200664 -1.595219 -0.523757 1.000000 -21.566000
H 2.373661 3.662797 7.704746 1.293332 10.455163 -5.682227 0.062500 10.783000
H 13.392540 7.722383 6.710628 -3.501775 -14.018531 15.249555 0.062500 10.783000
O 13.081259 7.805126 6.671958 1.101593 -1.058273 -3.831509 1.000000 -21.566000
H 12.886968 7.553969 6.699710 13.951101 -6.146161 -12.906566 0.062500 10.783000
H 4.185635 1.545667 8.649282 -11.811884 -4.797348 -5.338591 0.062500 10.783000
O 4.358480 1.792861 8.527690 0.132824 0.035450 -2.139436 1.000000 -21.566000
H 4.519523 1.676835 8.275483 -0.363648 -0.148251 1.768458 0.062500 10.783000
H 2.927784 3.996435 7.262668 -11.630715 -5.998311 -3.027128 0.062500 10.783000
O 2.969386 4.185605 7.004555 0.286197 -0.281682 -2.093238 1.000000 -21.566000
H 3.254409 4.325161 7.068261 3.178192 -2.711957 9.015771 0.062500 10.783000
H 9.935691 9.258819 1.482567 -0.260730 4.488546 1.219805 0.062500 10.783000
O 10.174142 9.415537 1.342763 2.699301 0.077978 0.123688 1.000000 -21.566000
H 10.426242 9.232230 1.437042 -15.564966 2.657450 5.079392 0.062500 10.783000
H 4.881323 0.344469 4.617301 10.907314 5.249928 -3.713736 0.062500 10.783000
O 5.170542 0.479392 4.696152 -1.374380 -0.554545 -1.127991 1.000000 -21.566000
H 5.111702 0.652805 4.946377 -6.299967 -23.104221 4.681825 0.062500 10.783000
H 5.073387 3.113703 10.582571 -4.703477 0.346505 -9.430718 0.062500 10.783000
O 5.400233 3.163294 10.572614 0.187640 4.479501 -0.032360 1.000000 -21.566000
H 5.453301 3.480033 10.659197 2.466784 7.650694 2.755012 0.062500 10.783000
H 7.328230 4.215338 6.882735 11.421946 3.512720 -11.357396 0.062500 10.783000
O 7.641506 4.277246 6.946498 2.989113 2.118906 -1.420043 1.000000 -21.566000
H 7.691553 4.445670 7.211879 -1.442959 -15.901516 -18.438542 0.062500 10.783000
H 6.769116 6.056782 4.875279 8.593806 -1.536546 3.531945 0.062500 10.783000
O 6.782606 6.062972 4.550959 0.563824 2.399341 -1.481889 1.000000 -21.566000
H 7.084090 6.097673 4.417597 -10.928466 -5.258841 -15.019403 0.062500 10.783000
H 6.104246 5.833420 10.904339 10.066301 -9.833063 2.984163 0.062500 10.783000
O 6.088398 6.015842 11.165340 0.153112 -0.745702 -1.162977 1.000000 -21.566000
H 5.866404 6.246927 11.120514 -9.043355 3.508960 7.438158 0.062500 10.783000
H 7.748381 5.552573 5.070539 -9.230145 7.476892 -2.589222 0.062500 10.783000
O 7.616551 5.675851 5.334043 -0.598838 -2.597301 -2.399781 1.000000 -21.566000
H 7.399696 5.486050 5.460530 -1.182257 -4.695420 -3.826560 0.062500 10.783000
H 9.413717 3.641395 10.996454 -6.560106 8.448395 7.003825 0.062500 10.783000
O 9.679984 3.529672 10.840101 1.676160 -0.684661 -3.342257 1.000000 -21.566000
H 9.945464 3.608929 10.997853 -11.549701 1.626689 -1.265725 0.062500 10.783000
H 1.588715 2.598830 8.125783 -4.077000 -1.031537 10.944565 0.062500 10.783000
O 1.267216 2.538544 8.069938 -1.193122 -4.851421 0.350501 1.000000 -21.566000
H 1.127785 2.737572 8.275937 -3.772162 -9.072031 -3.322420 0.062500 10.783000
H 14.428845 4.869445 8.394241 -4.256376 -7.658965 -2.333833 0.062500 10.783000
O 14.552988 4.594980 8.489767 -2.528549 -1.275837 2.234486 1.000000 -21.566000
H 0.135502 4.577593 8.426950 11.917581 -14.199985 7.235206 0.062500 10.783000
H 10.737329 2.263774 12.879964 -1.444803 7.382256 12.779200 0.062500 10.783000
O 10.608801 1.971075 12.811427 -1.336122 0.598930 -0.740458 1.000000 -21.566000
H 10.680099 1.838827 12.540805 -2.044808 -1.559512 -4.489938 0.062500 10.783000
H 10.516491 3.894721 10.669487 -7.377619 -2.877617 -1.915049 0.062500 10.783000
O 10.579105 3.710956 10.935296 -0.576121 4.720978 -1.957907 1.000000 -21.566000
H 10.742940 3.453193 10.839523 3.689154 -4.318536 -4.719959 0.062500 10.783000
H 0.088546 7.464792 8.712459 -4.444503 15.730757 -1.737120 0.062500 10.783000
O 0.051622 7.150467 8.693651 -1.163618 5.070222 -0.024478 1.000000 -21.566000
H 0.240369 7.023880 8.442391 3.621568 -11.927310 6.107839 0.062500 10.783000
H 2.156411 13.309927 2.606860 6.121468 -10.087032 3.725968 0.062500 10.783000
O 1.893953 13.130165 2.650108 -1.180020 4.727223 2.220887 1.000000 -21.566000
H 1.710506 13.152041 2.382967 -5.763574 -10.464729 3.715375 0.062500 10.783000
H 3.998125 3.899655 9.438410 -10.932614 -9.757615 -8.971187 0.062500 10.783000
O 3.865426 4.026272 9.174172 3.655157 0.227026 -1.069283 1.000000 -21.566000
H 3.545670 4.051350 9.202407 1.744173 -8.773142 -0.841082 0.062500 10.783000
H 14.503664 8.367358 10.612493 -15.001439 -3.724209 -6.466776 0.062500 10.783000
O 14.567597 8.061323 10.709728 -2.348667 -0.389083 -0.261185 1.000000 -21.566000
H 14.283615 7.960795 10.854472 0.624772 5.632138 4.434845 0.062500 10.783000
H 4.460661 5.042350 6.370873 1.623484 -0.599704 -10.011675 0.062500 10.783000
O 4.673097 4.817892 6.263322 -0.001198 0.917754 -0.835442 1.000000 -21.566000
H 4.538916 4.680047 6.012714 -0.603565 5.698165 -3.075517 0.062500 10.783000
H 7.483626 3.363281 4.458958 -4.150558 9.404173 19.323943 0.062500 10.783000
O 7.355185 3.118608 4.596552 1.556525 -1.402711 0.538411 1.000000 -21.566000
H 7.616550 2.976214 4.710388 1.803793 14.112307 -9.082559 0.062500 10.783000
H 5.557654 5.963637 8.297284 9.924131 -9.324178 3.531876 0.062500 10.783000
O 5.533643 6.227717 8.103450 -1.068272 -1.322089 1.289280 1.000000 -21.566000
H 5.803738 6.231010 7.933970 -0.839782 8.610588 1.787051 0.062500 10.783000
H 4.490174 5.290892 7.705142 6.526874 -4.264521 9.494923 0.062500 10.783000
O 4.323474 5.198178 7.430315 -3.944781 5.244323 2.226958 1.000000 -21.566000
H 4.422357 5.424355 7.225064 3.818720 -1.541489 2.928330 0.062500 10.783000
H 0.305163 10.463988 5.840578 -1.169932 7.777149 12.203440 0.062500 10.783000
O 0.153920 10.711530 5.934854 1.529391 0.939120 -1.389228 1.000000 -21.566000
H 0.266877 10.956633 5.766779 -3.327186 -2.026864 -0.831413 0.062500 10.783000
H 4.545830 6.614344 0.752427 2.880317 -6.102585 -0.071036 0.062500 10.783000
O 4.761834 6.783681 0.926208 -0.412217 1.745685 0.731490 1.000000 -21.566000
H 5.030963 6.612820 0.898736 -4.067875 6.912892 -7.911362 0.062500 10.783000
H 8.608881 2.223166 9.589130 6.467747 2.282828 7.342745 0.062500 10.783000
O 8.325405 2.245979 9.738121 2.372295 -1.688940 -2.530944 1.000000 -21.566000
H 8.296776 2.553431 9.827759 -5.608897 -3.832543 2.772867 0.062500 10.783000
H 10.997377 6.131411 8.188718 -3.934753 -6.090007 8.485555 0.062500 10.783000
O 11.256144 6.322079 8.096064 0.781859 0.050934 -2.190108 1.000000 -21.566000
H 11.509355 6.187644 8.224737 -1.416249 14.957488 -0.533405 0.062500 10.783000
H 13.214656 6.803146 7.728692 6.022945 1.048366 -2.686012 0.062500 10.783000
O 12.985804 6.617350 7.613261 0.672428 0.135175 1.176941 1.000000 -21.566000
H 12.841306 6.451113 7.842365 -6.158505 -10.529207 2.654879 0.062500 10.783000
H 13.625071 7.120148 9.330723 -5.938315 -0.356306 0.864028 0.062500 10.783000
O 13.512432 7.197984 9.620782 -2.258580 2.570281 -0.069405 1.000000 -21.566000
H 13.775298 7.293246 9.785831 -2.660041 5.098624 8.223933 0.062500 10.783000
H 13.049365 8.376872 7.453677 -2.399894 2.544133 13.834405 0.062500 10.783000
O 13.310131 8.249911 7.585594 -3.973961 -0.390861 -1.584104 1.000000 -21.566000
H 13.200590 7.979914 7.719014 -4.367174 -10.857936 2.364522 0.062500 10.783000
H 13.947981 8.799292 5.145953 -14.447357 3.568905 -13.103892 0.062500 10.783000
O 13.775133 8.550771 5.047236 3.109824 -3.651523 -1.954942 1.000000 -21.566000
H 13.681495 8.620550 4.746051 -8.267421 -0.608113 1.747442 0.062500 10.783000
H 3.122785 9.020400 0.731345 2.399265 -17.381331 -6.028526 0.062500 10.783000
O 2.927472 8.820301 0.895524 -1.740199 -1.326926 0.236006 1.000000 -21.566000
H 3.055607 8.616346 1.088996 -2.905979 5.950638 -12.061232 0.062500 10.783000
H 14.554476 5.817230 10.887284 -14.896018 1.096249 -4.794164 0.062500 10.783000
O 0.009525 5.910363 10.640966 -0.319530 2.326314 4.449216 1.000000 -21.566000
H 14.620854 5.884550 10.339878 -0.023787 3.345781 1.053627 0.062500 10.783000
H 1.162933 6.526458 8.489794 2.108737 -13.462372 3.511598 0.062500 10.783000
O 1.117025 6.663534 8.780851 1.187145 -1.097385 0.061633 1.000000 -21.566000
H 1.042842 6.975317 8.746647 -7.649281 -2.004325 -5.237534 0.062500 10.783000
H 4.204857 2.922579 6.222543 5.097046 -6.382199 -10.756109 0.062500 10.783000
O 4.149374 3.089081 5.966022 -0.840356 -1.341772 2.624246 1.000000 -21.566000
H 4.431755 3.252241 5.904277 4.386781 4.747646 -13.809297 0.062500 10.783000
H 2.822584 7.059813 6.568392 -2.633195 5.135553 -0.412565 0.062500 10.783000
O 2.886890 6.771004 6.701639 -3.035236 2.109605 -2.059298 1.000000 -21.566000
H 2.640385 6.570849 6.674770 -4.359640 0.933614 5.845467 0.062500 10.783000
H 2.464706 8.905776 5.693447 0.430060 -11.245696 13.793915 0.062500 10.783000
O 2.693645 9.144209 5.718701 -0.478629 -1.617371 2.616738 1.000000 -21.566000
H 2.941870 9.102999 5.527550 -16.324287 -19.723592 -7.806199 0.062500 10.783000
H 5.511365 9.318440 6.305401 -4.119761 -6.056846 1.139998 0.062500 10.783000
O 5.745413 9.462460 6.478105 0.434245 -3.308853 0.623047 1.000000 -21.566000
H 5.850940 9.224162 6.669989 -12.413596 -5.920438 -0.131129 0.062500 10.783000
H 4.114783 6.428785 5.538018 6.756687 2.432993 -5.831020 0.062500 10.783000
O 3.992196 6.159295 5.423855 1.765519 -2.193265 3.921178 1.000000 -21.566000
H 3.753190 6.057600 5.613440 -13.314260 7.506142 -3.837631 0.062500 10.783000
H 0.351510 9.327164 0.310793 -5.908307 -0.612912 -0.517452 0.062500 10.783000
O 0.221373 9.366472 0.601156 -3.037052 -2.005634 3.023082 1.000000 -21.566000
H 0.271324 9.101152 0.762938 3.200872 -2.134664 2.503021 0.062500 10.783000
H 9.047968 5.036680 10.192255 3.201689 -3.001938 0.624006 0.062500 10.783000
O 9.051866 5.225846 9.933606 -1.819628 -0.362317 -3.051694 1.000000 -21.566000
H 9.271377 5.147377 9.715303 -9.019573 -7.787651 -0.062219 0.062500 10.783000
H 10.871146 7.704864 5.622946 6.260030 9.510180 1.586134 0.062500 10.783000
O 10.739764 7.567268 5.878500 -0.277817 0.101571 0.019766 1.000000 -21.566000
H 10.831088 7.266289 5.855668 1.898726 0.626736 -1.584534 0.062500 10.783000
H 12.383419 4.340632 9.606781 2.666190 -6.863247 -2.991056 0.062500 10.783000
O 12.272630 4.110577 9.404779 -0.179150 -2.219144 0.707693 1.000000 -21.566000
H 11.961743 4.167427 9.360543 -0.631158 1.707011 -6.745720 0.062500 10.783000
H 11.751410 8.378187 9.690959 7.600443 -6.090513 7.211738 0.062500 10.783000
O 11.928411 8.134787 9.615650 0.911017 -0.783278 4.117519 1.000000 -21.566000
H 12.113390 8.219540 9.372095 3.092061 3.125341 0.072533 0.062500 10.783000
H 0.376539 8.223326 4.375853 -2.293459 -0.981588 -7.968773 0.062500 10.783000
O 0.112606 8.067346 4.282844 0.805554 -0.519669 -4.282230 1.000000 -21.566000
H 14.714316 8.246071 4.056435 -4.421525 -0.723237 7.694480 0.062500 10.783000
H 1.754557 3.698824 7.700852 8.148159 -0.307893 1.686025 0.062500 10.783000
O 1.951370 3.697731 7.944351 -1.008678 -0.551422 1.768468 1.000000 -21.566000
H 1.802809 3.586328 8.209587 -1.963938 0.516418 8.159119 0.062500 10.783000
H 1.374600 7.555135 8.916567 -3.554415 -1.839492 1.702570 0.062500 10.783000
O 1.160051 7.578890 8.681508 0.411717 -1.940014 -1.539558 1.000000 -21.566000
H 1.326347 7.702770 8.427367 -8.895850 6.783711 -3.269740 0.062500 10.783000
H 1.643895 6.654214 9.057347 -12.265706 5.507240 4.220950 0.062500 10.783000
O 1.958872 6.586226 9.035498 -2.202473 -0.518786 -0.587771 1.000000 -21.566000
H 2.084798 6.664398 9.325786 8.978261 8.405386 0.393864 0.062500 10.783000
H 3.452579 5.145220 6.174466 7.194180 -6.294352 -4.169179 0.062500 10.783000
O 3.767846 5.094313 6.248588 -1.008020 0.668990 1.853945 1.000000 -21.566000
H 3.906315 4.935361 5.990576 1.320762 -8.922702 6.238054 0.062500 10.783000
H 7.105296 5.948821 6.323737 -9.028686 -11.452758 1.671306 0.062500 10.783000
O 6.829358 6.014473 6.177475 -2.286650 -1.930954 -0.132252 1.000000 -21.566000
H 6.632350 6.184917 6.355272 -2.270729 -6.428738 -3.242544 0.062500 10.783000
H 8.045374 12.466219 14.251110 5.183907 -9.737057 -2.058227 0.062500 10.783000
O 8.339036 12.578216 14.291054 0.514472 -0.239633 -1.588924 1.000000 -21.566000
H 8.282278 12.876559 14.416661 12.544307 11.267311 -8.653434 0.062500 10.783000
H 10.718148 9.572014 5.903967 -0.385333 -3.368924 0.175362 0.062500 10.783000
O 10.877996 9.793955 5.741328 0.921388 2.093602 -2.557346 1.000000 -21.566000
H 10.791951 10.089303 5.858660 9.173537 2.259871 16.198186 0.062500 10.783000
H 8.043973 7.042036 3.908513 3.342090 9.896467 -3.602238 0.062500 10.783000
O 7.813477 7.025468 3.682473 -0.283670 1.399057 -0.248637 1.000000 -21.566000
H 7.601581 6.828128 3.789864 12.014327 8.124687 -2.400024 0.062500 10.783000
H 8.391055 4.907541 5.739500 5.045251 -1.988363 -6.232794 0.062500 10.783000
O 8.203916 4.836177 5.990871 2.613690 1.775156 -2.611515 1.000000 -21.566000
H 8.346112 4.617438 6.172398 4.983922 10.861586 -0.152246 0.062500 10.783000
H 9.903403 6.948067 7.523625 -4.237452 6.812278 4.404296 0.062500 10.783000
O 9.630793 6.804957 7.582138 -1.856670 2.133260 0.940268 1.000000 -21.566000
H 9.435130 6.879402 7.331583 -1.667953 -1.912350 -5.723015 0.062500 10.783000
H 9.712316 6.303288 7.312912 10.945200 -3.481259 0.167065 0.062500 10.783000
O 9.737463 6.028564 7.139334 1.460944 2.207770 3.457261 1.000000 -21.566000
H 9.525754 6.019628 6.893978 5.924363 2.765799 -12.877147 0.062500 10.783000
H 4.566447 7.972749 5.794250 -10.783966 -24.355259 -5.330807 0.062500 10.783000
O 4.265776 7.958563 5.692970 0.069288 -0.551892 3.244885 1.000000 -21.566000
H 4.226630 7.872138 5.386722 3.910920 15.310553 -7.144995 0.062500 10.783000
H 14.644228 5.481079 9.425516 -10.447631 7.370173 -6.688817 0.062500 10.783000
O 14.663408 5.245738 9.201761 -1.089363 1.720335 -0.916814 1.000000 -21.566000
H 14.574346 4.953391 9.299428 0.501353 -5.879004 8.970658 0.062500 10.783000
H 11.315124 7.026817 9.532079 -0.376293 3.535245 -4.097039 0.062500 10.783000
O 11.313450 7.061661 9.860219 -0.656149 0.505681 -2.461743 1.000000 -21.566000
H 11.605184 7.152626 9.966813 4.290445 7.558971 -2.302483 0.062500 10.783000
H 1.299580 7.729166 7.282266 6.564887 -2.532263 7.342097 0.062500 10.783000
O 1.553504 7.843222 7.101931 2.878511 -0.267189 0.847418 1.000000 -21.566000
H 1.707198 7.578626 7.002156 12.666703 -2.759254 -0.283958 0.062500 10.783000
H 12.465241 8.307915 5.086044 3.121897 -0.618539 4.201086 0.062500 10.783000
O 12.430170 8.296019 5.414489 -1.107872 1.159145 3.486753 1.000000 -21.566000
H 12.667339 8.118215 5.527996 -6.166712 -4.223985 -3.753478 0.062500 10.783000
H 1.511427 4.492882 6.759403 10.163680 0.093149 -8.971822 0.062500 10.783000
O 1.702009 4.755415 6.809349 2.498088 -2.326612 -0.896878 1.000000 -21.566000
H 1.742553 4.760711 7.126196 8.975445 5.980524 6.939783 0.062500 10.783000
H 3.774210 5.468608 4.494429 19.295851 -10.511244 9.174103 0.062500 10.783000
O 3.742807 5.167647 4.400190 3.040052 -1.180840 -0.713898 1.000000 -21.566000
H 3.439214 5.132076 4.313441 -8.050619 6.361677 -12.015034 0.062500 10.783000
H 3.785841 7.589143 4.803112 -7.855624 9.258430 -1.782732 0.062500 10.783000
O 4.060746 7.747316 4.848737 1.266747 -0.566933 1.578356 1.000000 -21.566000
H 4.031929 8.043572 4.720843 -1.084814 -5.847276 -4.950243 0.062500 10.783000
H 3.108052 10.115295 7.923575 -10.998791 -6.371020 -4.361080 0.062500 10.783000
O 2.890741 9.940563 7.783566 1.512803 -1.309598 -3.619207 1.000000 -21.566000
H 2.596285 10.021478 7.893843 -5.442533 -2.531634 21.218058 0.062500 10.783000
H 4.080440 9.789031 6.859005 3.178736 3.016059 -16.196373 0.062500 10.783000
O 4.147875 9.467609 6.798037 0.639739 -1.436237 -2.205585 1.000000 -21.566000
H 4.045695 9.375702 6.507417 -7.459302 -3.752935 7.978437 0.062500 10.783000
H 6.429895 8.011637 7.492259 7.339814 4.672471 -8.540964 0.062500 10.783000
O 6.736240 8.029964 7.461506 0.652829 2.939724 2.130442 1.000000 -21.566000
H 6.724809 8.016514 7.143907 -8.912648 -9.094344 1.097349 0.062500 10.783000
H 5.140765 7.459798 8.104557 -0.472473 10.149939 18.773852 0.062500 10.783000
O 5.040278 7.312589 7.834083 3.746133 3.095480 -3.815296 1.000000 -21.566000
H 5.270170 7.243720 7.609347 8.834840 -0.174381 1.784375 0.062500 10.783000
H 5.937298 10.072871 5.360173 0.900682 13.322683 -2.790776 0.062500 10.783000
O 5.832945 10.068997 5.671765 2.154351 0.430782 -1.585259 1.000000 -21.566000
H 5.846961 9.764770 5.757015 -0.473372 7.121852 12.135671 0.062500 10.783000
H 10.197734 7.512484 7.112115 1.215980 -9.180128 1.547388 0.062500 10.783000
O 10.331096 7.331208 7.330164 0.621661 3.860514 0.938561 1.000000 -21.566000
H 10.387143 7.546858 7.562758 -11.887481 -3.842336 1.026644 0.062500 10.783000
H 12.721824 7.757232 9.026431 -3.803292 0.217631 5.560156 0.062500 10.783000
O 12.596005 7.904029 8.760225 -0.415814 -1.455622 -1.684911 1.000000 -21.566000
H 12.833105 8.104469 8.644268 4.467532 4.018335 -2.562034 0.062500 10.783000
H 11.094118 6.752342 5.458147 -7.811689 12.908622 7.533108 0.062500 10.783000
O 11.046440 6.739363 5.782296 1.003902 -3.587134 -1.346295 1.000000 -21.566000
H 11.325313 6.833895 5.917027 10.689246 2.579236 -11.181544 0.062500 10.783000
H 13.967848 5.193860 12.205009 4.883515 -5.195960 -9.902222 0.062500 10.783000
O 13.785641 5.453807 12.176870 2.701334 0.597851 -1.350790 1.000000 -21.566000
H 13.499444 5.343413 12.300727 -1.786264 -2.957966 6.656644 0.062500 10.783000
H 9.274949 5.100937 6.187069 1.417168 1.649504 -1.298647 0.062500 10.783000
O 9.336556 4.813229 6.075773 -6.008023 -3.131455 0.796398 1.000000 -21.566000
H 9.465350 4.790537 5.785430 5.412905 2.632151 8.475990 0.062500 10.783000
H 8.141782 10.495514 3.694797 1.478613 -13.068530 -2.100679 0.062500 10.783000
O 8.294413 10.314877 3.462459 -0.932894 0.448265 -1.271197 1.000000 -21.566000
H 8.107084 10.145431 3.284088 -2.051241 -7.054359 -5.382366 0.062500 10.783000
H 3.133113 5.727283 5.728261 -16.320883 2.493526 -6.210876 0.062500 10.783000
O 3.253452 6.022574 5.817745 1.022547 2.522039 -2.114556 1.000000 -21.566000
H 3.099643 6.159209 6.051434 4.567195 -3.567908 1.510630 0.062500 10.783000
H 14.231966 6.590659 4.484939 10.203114 -2.880538 2.024905 0.062500 10.783000
O 14.153099 6.675466 4.181695 0.545473 -1.318240 -1.402338 1.000000 -21.566000
H 13.840705 6.720217 4.147740 -1.373701 3.830092 1.625152 0.062500 10.783000
H 3.647305 8.076129 9.172295 6.742246 6.292147 14.821191 0.062500 10.783000
O 3.528791 8.188251 9.458943 -3.186476 -2.615935 -3.170236 1.000000 -21.566000
H 3.203221 8.246091 9.439981 -0.393468 3.866413 11.794131 0.062500 10.783000
H 0.638503 10.386225 7.490126 2.416093 4.094024 -1.811589 0.062500 10.783000
O 0.725523 10.094877 7.599479 -2.259752 -2.377598 1.168682 1.000000 -21.566000
H 1.049967 10.097231 7.591664 2.895025 -11.675156 -21.682178 0.062500 10.783000
H 5.790459 6.237837 4.578520 -8.791562 -7.965019 6.339567 0.062500 10.783000
O 5.850660 6.144459 4.281714 -1.909451 1.489684 1.175552 1.000000 -21.566000
H 6.158639 6.069688 4.347200 -8.180306 -3.008150 12.422420 0.062500 10.783000
H 1.839697 10.424332 7.457678 3.285092 -6.065621 0.448494 0.062500 10.783000
O 1.602124 10.339210 7.653423 0.376162 -0.817024 -0.824535 1.000000 -21.566000
H 1.787396 10.195264 7.875469 -3.331307 -1.134188 -14.714619 0.062500 10.783000
H 2.150403 13.765795 12.435034 1.489120 -4.285743 5.850168 0.062500 10.783000
O 2.378812 13.541404 12.410714 -0.792612 0.058298 1.050220 1.000000 -21.566000
H 2.252719 13.309673 12.592082 7.889795 3.386457 5.606428 0.062500 10.783000
H 10.230579 5.646297 6.014744 3.613102 15.214194 -7.202264 0.062500 10.783000
O 10.458806 5.456122 6.147968 -1.433656 0.039887 1.624698 1.000000 -21.566000
H 10.503260 5.214405 5.942723 -6.910339 -5.194484 -2.128647 0.062500 10.783000
H 3.639877 13.283251 8.028512 -3.418867 0.906841 -0.095663 0.062500 10.783000
O 3.749117 13.104114 8.281018 -3.753225 -1.305662 0.364097 1.000000 -21.566000
H 4.078098 13.074530 8.246164 -11.256651 0.989888 -8.386471 0.062500 10.783000
H 3.931457 12.879132 7.074479 -4.006543 9.652018 -5.589374 0.062500 10.783000
O 3.781880 13.147690 7.038987 1.499556 4.040552 -2.199663 1.000000 -21.566000
H 3.732565 13.166555 6.725737 4.254907 2.463881 -9.865363 0.062500 10.783000
H 6.072614 8.356884 4.248029 6.410603 -2.900727 -8.172683 0.062500 10.783000
O 6.171758 8.183947 4.495735 0.162287 -2.078597 -2.866803 1.000000 -21.566000
H 5.912857 8.048418 4.618088 -6.615707 -3.738201 2.470631 0.062500 10.783000
H 10.495728 8.933314 4.933559 -0.340152 8.743933 -6.537051 0.062500 10.783000
O 10.317173 9.036272 4.690153 -0.546735 -1.019569 -2.383383 1.000000 -21.566000
H 10.392987 8.900486 4.412404 -7.968318 -17.502871 1.092720 0.062500 10.783000
H 7.365011 10.491834 7.227683 -5.207987 2.281919 0.415671 0.062500 10.783000
O 7.575067 10.259349 7.138007 4.871650 -1.534765 0.606490 1.000000 -21.566000
H 7.846549 10.386501 7.217069 15.461999 7.903710 -8.141446 0.062500 10.783000
H 10.716766 6.574045 3.714761 5.475819 4.900023 -14.278788 0.062500 10.783000
O 11.005862 6.476916 3.797035 1.842221 -0.142150 -0.453899 1.000000 -21.566000
H 10.976267 6.289748 4.052282 2.259100 -5.011835 -2.552302 0.062500 10.783000
H 14.553930 9.733759 9.390001 6.594494 1.955889 14.129180 0.062500 10.783000
O 14.342080 9.728253 9.137696 0.549036 1.700534 -3.547684 1.000000 -21.566000
H 14.090198 9.931839 9.167052 5.977114 3.835054 9.692160 0.062500 10.783000
H 5.858314 11.212350 5.337519 -3.344371 7.840676 -1.338798 0.062500 10.783000
O 5.548900 11.138349 5.403814 2.232556 0.923744 0.954690 1.000000 -21.566000
H 5.368819 11.210389 5.150102 -11.918310 -11.762696 0.193582 0.062500 10.783000
H 11.174205 10.488484 8.487820 -4.979228 2.176041 10.219678 0.062500 10.783000
O 11.446681 10.614848 8.590540 0.938962 -1.727363 -0.715034 1.000000 -21.566000
H 11.578914 10.386116 8.774122 2.463070 2.366436 -11.255354 0.062500 10.783000
H 11.252105 6.229841 6.822763 -2.588687 6.713342 4.786803 0.062500 10.783000
O 11.463454 6.282001 7.054068 3.319766 -0.794062 1.526357 1.000000 -21.566000
H 11.285409 6.293162 7.334067 5.318480 -8.384220 1.876977 0.062500 10.783000
H 4.441377 10.054240 5.595201 -6.413413 -1.441210 3.050256 0.062500 10.783000
O 4.545501 10.360473 5.538821 0.904456 3.824644 2.324111 1.000000 -21.566000
H 4.777968 10.432087 5.748835 8.180379 -7.547669 -10.027026 0.062500 10.783000
H 14.306433 1.741981 0.014219 -4.701721 -18.006264 1.346507 0.062500 10.783000
O 14.600941 1.822256 0.084247 0.372081 0.950467 -3.241519 1.000000 -21.566000
H 14.592425 2.132866 0.173068 5.745799 -5.589610 26.034940 0.062500 10.783000
H 7.622455 8.423189 4.648461 -7.520599 -4.712482 3.382340 0.062500 10.783000
O 7.539320 8.723100 4.739793 1.204707 2.024769 1.376212 1.000000 -21.566000
H 7.712610 8.919195 4.556127 9.959719 0.357624 18.002851 0.062500 10.783000
H 4.085173 8.689289 3.592416 1.109139 -5.373798 -1.733434 0.062500 10.783000
O 3.951590 8.950406 3.437414 -0.045743 -1.309238 0.227983 1.000000 -21.566000
H 3.706618 9.065251 3.588995 -6.902685 12.943356 -11.249335 0.062500 10.783000
H 0.652604 10.596678 1.876404 4.154093 10.960696 5.937860 0.062500 10.783000
O 0.667798 10.300145 1.999525 4.064216 -1.307751 1.197285 1.000000 -21.566000
H 0.623567 10.125441 1.733931 -3.992181 2.169089 6.385004 0.062500 10.783000
H 6.255421 9.703240 1.835903 15.587527 15.137135 10.270101 0.062500 10.783000
O 6.282307 9.687549 1.509216 -3.949264 -0.449755 -0.146790 1.000000 -21.566000
H 6.374503 9.400063 1.388121 9.487202 5.396879 -1.962624 0.062500 10.783000
H 5.277333 8.464967 3.467518 -2.474477 -8.670851 6.775726 0.062500 10.783000
O 5.223686 8.690142 3.689604 -3.639080 2.456940 -2.194591 1.000000 -21.566000
H 5.444293 8.950594 3.681720 14.409665 0.897357 -23.875765 0.062500 10.783000
H 2.118865 9.982562 3.868649 -10.815893 3.618644 16.884778 0.062500 10.783000
O 2.369726 9.794045 3.830556 0.969018 -2.047413 -0.811717 1.000000 -21.566000
H 2.407025 9.657159 3.553861 2.453411 0.726581 18.203606 0.062500 10.783000
H 13.572711 13.791583 12.808613 -1.283441 5.838546 2.972314 0.062500 10.783000
O 13.252207 13.813222 12.801674 0.602307 -0.475586 0.507160 1.000000 -21.566000
H 13.225519 14.110384 12.692544 1.883116 7.814159 -4.917690 0.062500 10.783000
H 6.846102 5.366053 0.773560 0.180774 -2.270716 -17.248965 0.062500 10.783000
O 7.034352 5.546646 0.962023 -3.207247 2.034116 1.353456 1.000000 -21.566000
H 7.072975 5.822336 0.799759 30.597927 -0.838329 10.209658 0.062500 10.783000
H 14.658252 13.109946 1.479286 2.792813 -18.682723 -10.777691 0.062500 10.783000
O 0.103547 13.165953 1.722299 -0.176647 1.245904 -1.170418 1.000000 -21.566000
H 0.157946 13.473769 1.766744 12.058678 11.680448 0.533110 0.062500 10.783000
H 13.936115 13.381110 10.259990 -3.277838 -5.168656 -1.832464 0.062500 10.783000
O 13.952565 13.125952 10.442393 2.116673 -0.234218 -2.569064 1.000000 -21.566000
H 13.660877 13.086094 10.565392 -19.846966 -9.631218 -7.661609 0.062500 10.783000
H 12.408082 13.954530 9.384001 8.297591 9.948427 8.831515 0.062500 10.783000
O 12.464479 14.036757 9.069609 -2.391120 1.989949 2.727158 1.000000 -21.566000
H 12.397905 14.337890 8.983429 2.093019 -3.637671 -0.205273 0.062500 10.783000
H 10.942283 9.969474 6.995593 6.475555 1.691835 16.067459 0.062500 10.783000
O 11.259805 9.937826 7.003053 -1.847848 -1.384779 0.699357 1.000000 -21.566000
H 11.369215 10.157228 6.803257 -5.681552 3.263140 2.384105 0.062500 10.783000
H 12.444310 12.068621 3.898912 -15.555683 3.173763 -3.649016 0.062500 10.783000
O 12.274192 12.337269 3.896607 -1.538654 0.044761 -1.767122 1.000000 -21.566000
H 12.496213 12.567334 3.863332 -2.966579 4.632799 6.014310 0.062500 10.783000
H 9.988397 9.132031 7.211626 -0.536375 -9.612454 1.243792 0.062500 10.783000
O 9.888866 9.426711 7.230170 1.184034 -1.426995 1.641362 1.000000 -21.566000
H 9.569798 9.418947 7.186606 -8.687256 -16.892777 -1.166028 0.062500 10.783000
H 14.131879 8.610002 10.144149 9.144798 -6.367803 -4.636079 0.062500 10.783000
O 14.363001 8.810668 10.261136 -1.136795 2.042404 -0.346280 1.000000 -21.566000
H 14.486679 8.979833 10.018983 -6.014971 6.053131 -4.469033 0.062500 10.783000
H 4.061571 9.361011 12.185489 -2.240902 0.789798 -4.147932 0.062500 10.783000
O 4.233105 9.538603 11.971634 -0.216089 -0.880356 -1.126717 1.000000 -21.566000
H 4.325453 9.312933 11.765319 4.850182 12.262279 2.327484 0.062500 10.783000
H 4.092894 11.232701 7.734565 0.091074 12.124468 4.484738 0.062500 10.783000
O 4.222669 10.933266 7.684525 -2.909426 -2.296587 0.949330 1.000000 -21.566000
H 4.412421 10.885588 7.935656 -7.095063 -2.802371 -7.637697 0.062500 10.783000
H 4.045263 9.207083 7.297424 -7.296067 -7.091040 -7.771278 0.062500 10.783000
O 4.042584 9.038775 7.575113 1.353529 -1.575142 -1.049192 1.000000 -21.566000
H 4.323453 9.033041 7.718667 1.965741 -0.588227 -13.339285 0.062500 10.783000
H 10.192086 12.883155 2.041896 1.950136 7.303725 -9.233188 0.062500 10.783000
O 10.147372 13.124476 1.835260 1.482910 2.379642 -3.990934 1.000000 -21.566000
H 9.858980 13.046950 1.706397 -5.179044 -18.952392 1.911595 0.062500 10.783000
H 1.452314 11.120503 3.132794 1.168054 16.450985 2.117000 0.062500 10.783000
O 1.763726 11.073150 3.034505 0.735870 1.636810 0.894981 1.000000 -21.566000
H 1.727192 10.922633 2.744587 7.123865 0.136810 -0.776315 0.062500 10.783000
H 13.421967 0.585111 5.840716 -1.707332 11.886556 0.399848 0.062500 10.783000
O 13.112412 0.666127 5.864689 2.464270 2.129029 -1.012856 1.000000 -21.566000
H 12.925472 0.436343 5.990404 3.391214 14.655453 3.355658 0.062500 10.783000
H 14.237457 0.609363 5.702673 0.597702 12.235538 4.133718 0.062500 10.783000
O 14.430654 0.753944 5.470725 -1.714973 -0.042654 -2.388871 1.000000 -21.566000
H 14.339202 1.073737 5.476662 0.999690 -5.447932 5.925443 0.062500 10.783000
H 11.986337 1.851052 4.607746 -1.579403 0.135113 18.414527 0.062500 10.783000
O 12.122804 2.127246 4.486735 -1.586462 1.616416 0.876841 1.000000 -21.566000
H 12.337260 2.084874 4.266590 -3.048238 -0.087019 -2.215255 0.062500 10.783000
H 9.896781 3.455415 3.385427 -4.413177 -9.339199 -4.231236 0.062500 10.783000
O 10.041501 3.192723 3.266218 -3.859946 0.226287 0.746529 1.000000 -21.566000
H 9.944766 3.176183 2.957973 0.661128 -9.430461 1.665626 0.062500 10.783000
H 8.889086 11.833874 0.924381 -5.037421 -0.657704 7.661027 0.062500 10.783000
O 8.584789 11.761401 0.850027 -0.336266 2.048167 1.335049 1.000000 -21.566000
H 8.550825 11.447027 0.936323 -4.513478 -9.007644 -5.886501 0.062500 10.783000
H 12.653366 11.842740 7.047016 4.036631 -14.919514 1.157763 0.062500 10.783000
O 12.591721 11.536160 6.999733 -0.172026 -2.488501 -1.822380 1.000000 -21.566000
H 12.847659 11.368056 7.096909 -1.900321 2.378319 4.469969 0.062500 10.783000
H 13.377018 13.855178 6.310564 -12.033546 6.864419 -9.111209 0.062500 10.783000
O 13.456063 13.711340 6.047273 -2.685143 0.618950 2.217161 1.000000 -21.566000
H 13.567285 13.917068 5.826330 -5.593487 -0.320768 -2.550641 0.062500 10.783000
H 14.687897 13.404073 4.082202 2.957571 -1.906013 3.542805 0.062500 10.783000
O 14.550502 13.260690 4.322318 -0.502364 0.937982 -0.537115 1.000000 -21.566000
H 14.233203 13.307182 4.310156 -6.272720 -0.233991 -13.645807 0.062500 10.783000
H 13.741788 10.504463 8.937844 -5.622692 -0.424949 -0.920230 0.062500 10.783000
O 13.867534 10.468388 8.640493 1.324616 -2.148338 1.674054 1.000000 -21.566000
H 13.636787 10.347048 8.472113 7.993038 -5.172004 5.233596 0.062500 10.783000
H 6.867400 12.283094 8.594917 8.561467 1.139630 -4.185235 0.062500 10.783000
O 6.662226 12.080029 8.754772 1.476262 -0.496636 -2.947839 1.000000 -21.566000
H 6.600398 12.221787 9.035667 10.717620 2.051991 -1.578864 0.062500 10.783000
H 1.746353 11.997369 6.962140 3.168540 -0.521575 12.535204 0.062500 10.783000
O 1.961731 12.172438 7.094558 2.316518 -5.054571 1.503328 1.000000 -21.566000
H 2.232566 12.128487 6.936764 10.508999 6.700629 -7.321181 0.062500 10.783000
H 1.875516 11.612718 9.606995 4.473208 -10.729571 1.159247 0.062500 10.783000
O 1.900048 11.380882 9.828405 -1.952183 -2.772394 1.369972 1.000000 -21.566000
H 1.807769 11.523181 10.101096 1.840426 -9.458548 4.467252 0.062500 10.783000
H 4.575731 9.481682 8.663537 3.275156 -8.429775 14.377410 0.062500 10.783000
O 4.681092 9.201517 8.568908 -2.027289 0.065757 -3.030360 1.000000 -21.566000
H 4.739735 9.215914 8.262231 1.471627 -0.161434 0.342153 0.062500 10.783000
H 10.707549 2.693990 12.159417 -2.818605 3.131600 -1.911078 0.062500 10.783000
O 10.404301 2.689834 12.069238 -0.906682 1.681401 3.800971 1.000000 -21.566000
H 10.338880 2.969642 11.936270 -5.975933 -4.821063 9.031652 0.062500 10.783000
H 0.841231 12.498375 5.056064 -0.884960 11.096037 4.369844 0.062500 10.783000
O 1.116524 12.353481 5.103987 -0.860536 1.259158 -2.841455 1.000000 -21.566000
H 1.031270 12.047766 5.078758 -3.020575 -4.218462 10.408287 0.062500 10.783000
H 4.512158 12.958368 9.119807 -4.448786 -10.498303 -4.236137 0.062500 10.783000
O 4.601559 12.681505 9.011329 -1.221365 1.045372 1.632316 1.000000 -21.566000
H 4.516920 12.480792 9.246189 -20.040421 8.251693 -1.897526 0.062500 10.783000
H 4.607842 13.046934 8.405412 -6.261159 2.287572 -0.714777 0.062500 10.783000
O 4.642701 13.062804 8.091715 -2.314431 -2.552691 -0.678852 1.000000 -21.566000
H 4.857622 12.828634 8.009478 11.255618 -4.759740 17.961831 0.062500 10.783000
H 6.123964 13.020961 3.441696 1.481210 -4.128787 -4.139173 0.062500 10.783000
O 5.813022 13.097614 3.453215 0.756194 4.567087 0.350891 1.000000 -21.566000
H 5.675508 12.810069 3.497476 0.827553 2.952306 8.516601 0.062500 10.783000
H 2.371300 13.955020 4.155571 -1.992419 10.592821 6.050290 0.062500 10.783000
O 2.107268 14.000046 3.974214 0.578228 4.760151 2.836271 1.000000 -21.566000
H 2.165902 13.985347 3.656618 -7.548268 3.327914 -9.406343 0.062500 10.783000
H 1.162084 13.965092 3.722931 -8.100920 -4.500534 0.293232 0.062500 10.783000
O 0.917737 14.131095 3.830540 -1.186202 2.131012 0.524466 1.000000 -21.566000
H 0.973130 14.429545 3.925682 -3.298180 -4.958896 -1.463634 0.062500 10.783000
H 12.373818 1.642128 8.797359 0.847797 9.083894 -4.509357 0.062500 10.783000
O 12.173649 1.713381 9.037365 1.395398 3.315325 2.047388 1.000000 -21.566000
H 12.251952 2.008392 9.136211 1.414106 -3.030867 7.445343 0.062500 10.783000
H 13.806767 14.044423 8.548311 -6.753065 5.919507 -1.437343 0.062500 10.783000
O 14.058657 13.860208 8.518636 3.610130 1.994834 -6.443225 1.000000 -21.566000
H 14.034421 13.603583 8.721417 -9.205483 -3.089514 1.807730 0.062500 10.783000
H 9.763365 12.720053 6.635438 -7.163640 3.656182 3.344438 0.062500 10.783000
O 10.080535 12.676592 6.707870 1.570525 -0.842205 -2.575635 1.000000 -21.566000
H 10.247800 12.759194 6.460658 -8.409075 2.976971 7.282404 0.062500 10.783000
H 2.810469 13.965695 9.629844 4.933211 -7.130286 -3.078898 0.062500 10.783000
O 2.518270 13.913055 9.519054 -3.065021 -2.638930 0.654577 1.000000 -21.566000
H 2.599997 13.751657 9.255183 17.079901 -8.327958 5.404212 0.062500 10.783000
H 3.781377 11.268513 10.775013 -2.077048 -3.941446 -10.578540 0.062500 10.783000
O 3.813853 11.331328 10.467463 -0.028249 0.893237 -5.140317 1.000000 -21.566000
H 3.925273 11.062186 10.348555 8.600954 6.750894 -1.686903 0.062500 10.783000
H 4.417465 12.356384 13.052190 9.753222 1.122034 -13.257130 0.062500 10.783000
O 4.541798 12.421896 13.355391 -3.189270 3.988908 -1.210588 1.000000 -21.566000
H 4.290348 12.374443 13.567783 6.007948 5.158829 10.261792 0.062500 10.783000
H 3.778072 10.600672 3.322514 -3.227678 -7.336013 -0.806271 0.062500 10.783000
O 3.598206 10.624989 3.606044 4.266718 -1.931864 2.642289 1.000000 -21.566000
H 3.309556 10.569134 3.489796 3.207743 -2.284033 7.588483 0.062500 10.783000
H 3.074947 12.190524 7.651548 8.640518 -9.201986 -3.364106 0.062500 10.783000
O 3.223929 11.995934 7.847833 -1.270800 -0.117102 0.642491 1.000000 -21.566000
H 3.520859 11.993529 7.772708 -12.507583 2.981206 -2.150928 0.062500 10.783000
H 7.654043 5.277897 9.104570 -0.172264 3.727436 9.528058 0.062500 10.783000
O 7.547325 5.155068 9.384715 -1.530453 0.613813 -0.757380 1.000000 -21.566000
H 7.315725 5.357587 9.486599 -6.548471 -1.712737 -17.931366 0.062500 10.783000
H 11.285100 5.154919 8.195812 5.691914 -21.290152 4.128068 0.062500 10.783000
O 11.537956 5.244813 8.026501 -0.223570 -0.133478 1.560278 1.000000 -21.566000
H 11.509246 5.092104 7.737645 2.400572 3.664935 -11.918457 0.062500 10.783000
H 10.414127 1.714030 3.444482 3.844690 -0.194087 6.135242 0.062500 10.783000
O 10.291273 1.943728 3.620939 5.432074 3.455674 -4.722098 1.000000 -21.566000
H 10.482771 2.197968 3.528355 11.499349 2.507466 1.108379 0.062500 10.783000
H 10.966167 2.860326 8.859789 0.181815 6.340152 -1.768988 0.062500 10.783000
O 10.711637 3.011498 8.978955 -1.156530 1.713401 -0.750632 1.000000 -21.566000
H 10.735036 3.126960 9.290245 -5.753283 7.125298 -2.035594 0.062500 10.783000
H 10.442474 0.681619 5.401460 0.712682 12.712805 5.595489 0.062500 10.783000
O 10.450790 0.952205 5.248628 4.739286 -1.617071 1.003036 1.000000 -21.566000
H 10.200049 1.079177 5.383352 -0.686592 -5.495597 -7.441948 0.062500 10.783000
H 0.701405 2.186697 6.823466 -12.517496 20.003569 -3.314688 0.062500 10.783000
O 0.410745 2.084278 6.915230 0.919345 -0.005396 -0.146729 1.000000 -21.566000
H 0.285998 1.948784 6.657822 -6.016340 -7.638028 4.703331 0.062500 10.783000
H 0.611547 14.481222 6.991525 3.854590 -5.153797 -3.705614 0.062500 10.783000
O 0.417680 14.671109 7.180000 -2.470971 -0.859101 1.442765 1.000000 -21.566000
H 0.467350 14.612796 7.493001 2.013774 -6.624100 1.480256 0.062500 10.783000
H 2.237982 13.569642 5.378679 -2.702005 8.867033 2.285552 0.062500 10.783000
O 2.540735 13.626937 5.313941 3.502978 2.143468 3.358952 1.000000 -21.566000
H 2.738156 13.373649 5.349727 8.024691 6.784763 7.674658 0.062500 10.783000
H 12.564011 1.486365 3.401952 18.882513 18.107381 3.835718 0.062500 10.783000
O 12.452748 1.755281 3.283814 -0.083612 -0.555139 -0.844773 1.000000 -21.566000
H 12.566911 2.014035 3.441548 5.629481 -1.918453 4.053035 0.062500 10.783000
H 6.186937 13.022266 6.602861 -9.980439 -6.145972 3.159535 0.062500 10.783000
O 6.371791 13.249074 6.740669 1.436834 -2.745191 -2.671153 1.000000 -21.566000
H 6.370772 13.203217 7.065357 -4.199657 -8.666360 1.415759 0.062500 10.783000
H 3.590960 0.675924 4.152649 1.124827 -1.743051 7.893634 0.062500 10.783000
O 3.460576 0.948078 4.280288 0.647189 3.610305 0.043853 1.000000 -21.566000
H 3.151330 0.886400 4.367792 6.944410 5.805272 -13.562076 0.062500 10.783000
H 3.773166 0.452505 6.522569 -13.747935 2.923204 -4.002447 0.062500 10.783000
O 3.619241 0.337928 6.778900 2.242679 2.163568 1.618716 1.000000 -21.566000
H 3.310385 0.338724 6.682441 7.264098 -7.732005 1.623808 0.062500 10.783000
H 7.139421 14.684665 13.886231 11.566228 5.010075 -1.788893 0.062500 10.783000
O 7.148849 14.374872 13.948990 -1.727580 0.948519 -0.726804 1.000000 -21.566000
H 6.914511 14.272265 14.142161 -2.339150 -4.397933 1.399775 0.062500 10.783000
H 7.154838 12.991822 5.103282 13.142277 -12.616200 -7.186151 0.062500 10.783000
O 7.228776 13.213521 4.885814 1.309994 -2.667217 2.582080 1.000000 -21.566000
H 7.467751 13.406338 4.979863 11.241703 -8.582009 4.504324 0.062500 10.783000
H 0.850935 10.528531 4.518037 -1.993510 8.231091 12.391813 0.062500 10.783000
O 1.099714 10.330540 4.582516 0.823096 -1.357314 -0.957171 1.000000 -21.566000
H 0.954704 10.049133 4.651889 -11.351406 3.612901 13.291225 0.062500 10.783000
H 9.947486 0.123713 8.733046 0.846971 11.887939 -2.282524 0.062500 10.783000
O 10.094672 0.010508 8.996862 2.050177 0.183130 2.697082 1.000000 -21.566000
H 10.025693 0.244773 9.203959 -6.412715 6.635050 -1.851277 0.062500 10.783000
H 7.563166 13.312345 8.602222 4.666231 -6.363725 2.209501 0.062500 10.783000
O 7.625364 13.428943 8.313111 -1.420488 1.319885 1.994402 1.000000 -21.566000
H 7.482369 13.714329 8.276748 15.704354 5.885985 -2.441158 0.062500 10.783000
H 9.766191 1.442927 9.630878 5.616662 3.900828 2.314068 0.062500 10.783000
O 9.882854 1.683015 9.446344 -1.659370 -2.117350 1.645322 1.000000 -21.566000
H 10.015681 1.935625 9.607335 -0.556236 1.097353 8.477459 0.062500 10.783000
H 12.665300 2.193398 10.695729 14.435382 1.751348 -9.119622 0.062500 10.783000
O 12.399368 2.365360 10.759102 1.888581 -1.275739 -4.203750 1.000000 -21.566000
H 12.153998 2.200280 10.637496 0.507873 -1.885459 -17.008878 0.062500 10.783000
H 13.037787 10.290381 11.402085 -14.442540 -2.182775 8.647000 0.062500 10.783000
O 13.017323 9.959837 11.364136 3.487356 1.994174 -0.372990 1.000000 -21.566000
H 12.991246 9.856570 11.681407 -15.053123 6.342573 10.493722 0.062500 10.783000
H 13.822373 14.206144 2.171782 -1.495844 2.360099 3.479122 0.062500 10.783000
O 13.574099 13.993810 2.120345 1.082102 -1.647467 1.726755 1.000000 -21.566000
H 13.566130 13.922967 1.801625 -5.158265 -10.721243 -5.906059 0.062500 10.783000
H 13.067728 2.676261 5.191883 -6.932918 10.581345 -6.693948 0.062500 10.783000
O 13.262336 2.425360 5.174565 1.477575 1.840738 2.716296 1.000000 -21.566000
H 13.138225 2.201960 5.379569 2.097527 11.374960 -6.445234 0.062500 10.783000
H 3.550799 2.768944 9.435490 2.746395 16.521747 -13.149208 0.062500 10.783000
O 3.500675 2.886900 9.734557 1.147565 0.233706 2.727364 1.000000 -21.566000
H 3.235840 3.068760 9.737265 1.460213 -3.417121 3.710731 0.062500 10.783000
H 1.238095 0.015234 1.289927 -3.730198 4.898003 -17.032099 0.062500 10.783000
O 1.082109 14.468268 1.298073 -1.535555 -1.298550 3.209939 1.000000 -21.566000
H 0.951849 14.411637 1.577413 -11.916519 7.294116 -2.929186 0.062500 10.783000
H 12.962939 2.725400 6.367514 -1.117800 -4.837541 -9.107222 0.062500 10.783000
O 13.222637 2.635890 6.538014 2.327167 -3.539202 1.357316 1.000000 -21.566000
H 13.093297 2.586405 6.826646 -6.014339 5.116776 -4.808143 0.062500 10.783000
H 3.180326 3.879085 13.887479 -4.415021 -9.896108 3.084092 0.062500 10.783000
O 2.959174 3.658021 13.833500 0.745880 1.257083 3.917956 1.000000 -21.566000
H 2.868704 3.549374 14.116448 -6.404579 9.058099 -11.018971 0.062500 10.783000
H 2.994943 0.864011 5.690314 11.738894 3.432841 1.575173 0.062500 10.783000
O 2.787739 0.866395 5.947246 -1.117732 1.105606 -4.449008 1.000000 -21.566000
H 2.484669 0.856825 5.840501 -10.296472 10.238317 -9.350993 0.062500 10.783000
H 3.708798 14.368522 4.938815 6.306553 -24.094765 4.540365 0.062500 10.783000
O 3.900547 14.304870 4.687142 -0.305623 -0.001242 -1.110894 1.000000 -21.566000
H 4.184071 14.221190 4.827314 -2.139268 3.901495 -5.717578 0.062500 10.783000
H 6.022297 14.318878 3.845641 -6.637633 9.543118 -8.360200 0.062500 10.783000
O 6.266301 14.532600 3.891303 -0.136264 -0.776011 -4.105548 1.000000 -21.566000
H 6.238083 0.013486 3.657829 1.165911 16.544797 -0.765734 0.062500 10.783000
H 2.909117 0.302618 7.718263 2.783143 -2.853717 4.270152 0.062500 10.783000
O 3.106922 0.045336 7.669170 -1.698195 0.021919 0.041087 1.000000 -21.566000
H 3.047729 14.728492 7.364455 -6.094826 7.966050 2.287373 0.062500 10.783000
H 6.218013 14.139919 5.542497 2.911773 -3.918273 3.043300 0.062500 10.783000
O 6.419311 13.939930 5.401513 -2.125073 0.966881 2.682168 1.000000 -21.566000
H 6.441302 13.974859 5.072233 -5.235012 -11.168821 -1.337521 0.062500 10.783000
H 9.193714 6.061285 10.187722 9.330044 1.752279 -9.554367 0.062500 10.783000
O 9.088567 6.289154 9.985162 -0.670208 -1.339788 -2.190451 1.000000 -21.566000
H 9.284667 6.541203 10.017354 -8.185943 -4.928469 5.923437 0.062500 10.783000
H 7.646285 14.574821 9.165991 2.161894 -7.796500 -2.709446 0.062500 10.783000
O 7.731120 14.424300 8.899567 -1.287974 -0.030139 0.884694 1.000000 -21.566000
H 7.437224 14.355653 8.780008 -2.815946 14.406386 0.206671 0.062500 10.783000
H 13.968724 13.361595 0.701036 1.211133 -3.824964 -6.996585 0.062500 10.783000
O 13.691372 13.352029 0.840916 -1.340370 -1.181181 1.242653 1.000000 -21.566000
H 13.599187 13.648718 0.856753 -14.056883 -13.476675 2.691539 0.062500 10.783000
H 12.287610 4.288614 1.229147 9.632736 -16.493714 -3.724529 0.062500 10.783000
O 12.399463 4.584306 1.194575 -2.878552 -0.128720 1.648713 1.000000 -21.566000
H 12.216377 4.801541 1.326224 -3.538190 -2.922311 1.038146 0.062500 10.783000
H 12.975332 11.653404 3.962797 -2.235293 -0.289372 -3.434940 0.062500 10.783000
O 12.707390 11.606828 3.800719 6.011810 0.163880 3.448717 1.000000 -21.566000
H 12.746278 11.379735 3.563747 -0.568464 0.344643 -8.666026 0.062500 10.783000
H 14.540376 3.767114 7.515174 2.842901 12.619555 -7.666493 0.062500 10.783000
O 14.326647 3.895151 7.691105 2.020044 -5.932772 -0.426866 1.000000 -21.566000
H 14.481584 3.970772 7.955752 1.103342 11.459914 4.382703 0.062500 10.783000
H 5.285762 13.735484 4.558264 -11.102870 -2.127106 -4.078139 0.062500 10.783000
O 5.487357 13.975253 4.610594 -1.871198 1.475099 0.452958 1.000000 -21.566000
H 5.782321 13.837780 4.673730 2.545087 6.780661 17.050296 0.062500 10.783000
H 3.360693 0.312167 3.695636 -3.239415 -7.930205 -8.474322 0.062500 10.783000
O 3.634445 0.192888 3.814508 0.232241 2.988698 -2.017800 1.000000 -21.566000
H 3.568584 14.614315 3.868514 7.960058 0.281070 -9.115087 0.062500 10.783000
H 2.022683 1.537703 6.789781 0.387576 8.838496 8.586155 0.062500 10.783000
O 2.274301 1.501766 6.593341 -3.982954 -0.012493 1.018376 1.000000 -21.566000
H 2.407376 1.225831 6.690576 -5.227655 -2.212701 10.189968 0.062500 10.783000
H 13.599537 1.968857 4.964925 2.266397 2.714886 -2.657334 0.062500 10.783000
O 13.888598 1.850182 4.878248 -2.017514 -0.059539 -3.545520 1.000000 -21.566000
H 14.025459 1.994951 4.635026 -3.667209 -0.075063 -12.229847 0.062500 10.783000
H 3.122062 1.742114 3.751860 12.200243 7.181577 -9.313147 0.062500 10.783000
O 3.350639 1.753075 3.972010 -2.907325 0.315909 1.758916 1.000000 -21.566000
H 3.417330 1.452117 4.089863 -5.428652 1.599642 4.622796 0.062500 10.783000
H 5.263147 2.657602 2.617965 -0.327704 2.675903 -10.631188 0.062500 10.783000
O 5.117385 2.371525 2.613910 1.174574 1.116769 -0.377915 1.000000 -21.566000
H 4.940724 2.358653 2.343624 -2.162408 7.404567 -6.395596 0.062500 10.783000
H 7.508224 1.412207 2.563287 -6.289467 2.372291 2.111738 0.062500 10.783000
O 7.343245 1.374809 2.293663 -1.311883 0.984399 -1.217012 1.000000 -21.566000
H 7.532223 1.475051 2.053790 -5.941876 7.235201 -2.377571 0.062500 10.783000
H 7.943222 11.407759 6.115089 2.037289 15.744197 12.356004 0.062500 10.783000
O 8.124237 11.520232 6.334381 1.460842 -0.274904 -1.204247 1.000000 -21.566000
H 8.394876 11.348557 6.325662 4.197323 -10.531433 -2.898209 0.062500 10.783000
H 7.874304 14.713443 7.524728 4.599404 -2.095264 -3.847322 0.062500 10.783000
O 7.556047 14.662652 7.564594 -3.444342 0.379744 -0.168181 1.000000 -21.566000
H 7.428962 0.124857 7.352704 5.830247 4.325916 1.839397 0.062500 10.783000
H 4.888394 2.471725 6.708726 -9.226690 -23.975597 -1.077378 0.062500 10.783000
O 4.608567 2.620896 6.623649 0.491267 2.882206 3.794881 1.000000 -21.566000
H 4.580622 2.901440 6.765140 -4.079943 -4.411919 17.599279 0.062500 10.783000
H 7.107135 2.488846 5.494796 -19.465339 -2.932227 4.837739 0.062500 10.783000
O 6.954232 2.581279 5.214788 3.685651 1.280520 -1.253233 1.000000 -21.566000
H 7.114663 2.801536 5.059756 -4.033605 -5.045066 -0.565113 0.062500 10.783000
H 9.570673 13.632604 6.600297 3.066567 -2.105231 -15.939495 0.062500 10.783000
O 9.675575 13.923561 6.532644 1.072738 -1.917947 -2.078289 1.000000 -21.566000
H 9.533458 14.008147 6.268317 5.998312 -14.842242 -4.228682 0.062500 10.783000
H 10.337414 2.277167 14.091896 3.772289 13.252222 8.624941 0.062500 10.783000
O 10.045502 2.247877 13.957639 2.866778 0.696150 -1.342311 1.000000 -21.566000
H 10.082577 1.967043 13.807008 -7.999409 4.305966 19.511975 0.062500 10.783000
H 11.299604 1.485605 6.003155 2.450894 9.558110 -8.137237 0.062500 10.783000
O 10.981443 1.564543 6.001999 1.502080 -1.493957 3.116945 1.000000 -21.566000
H 10.772979 1.335465 6.060984 -4.356463 11.711740 -3.526373 0.062500 10.783000
H 0.494933 0.024048 10.039991 20.542092 -21.687002 5.864307 0.062500 10.783000
O 0.514579 0.159824 10.328271 1.064493 1.460482 -1.323446 1.000000 -21.566000
H 0.213103 0.213244 10.433919 5.325689 4.243133 16.076101 0.062500 10.783000
H 12.566180 13.755624 13.487721 9.550512 0.942027 10.692997 0.062500 10.783000
O 12.663258 13.514973 13.309179 -4.721324 1.010864 -0.091936 1.000000 -21.566000
H 12.878572 13.615435 13.095897 -6.604150 3.422053 4.721805 0.062500 10.783000
H 0.010076 1.105666 4.159803 6.584545 12.484543 -5.930506 0.062500 10.783000
O 14.504745 1.198161 3.993824 -3.178947 0.302459 2.742565 1.000000 -21.566000
H 14.473221 1.522274 3.978603 5.091841 2.891070 6.332591 0.062500 10.783000
H 1.810116 14.536462 4.881214 -6.133143 12.752059 1.531195 0.062500 10.783000
O 2.087767 14.701789 4.905482 4.306950 -1.937949 -2.443733 1.000000 -21.566000
H 2.015262 0.258493 5.003178 10.009802 1.068735 15.221265 0.062500 10.783000
H 4.434794 14.029175 7.233854 7.199414 -1.704317 6.860787 0.062500 10.783000
O 4.502785 14.195434 6.970512 -0.897103 0.559194 1.435563 1.000000 -21.566000
H 4.678684 14.458145 7.053580 -1.173012 -0.673348 -0.393548 0.062500 10.783000
H 13.071882 9.437929 2.472552 -7.048360 -2.310092 -5.145225 0.062500 10.783000
O 12.788809 9.567131 2.538189 -3.712130 -0.502614 1.943436 1.000000 -21.566000
H 12.694717 9.717969 2.280880 -1.412630 -4.210982 4.715671 0.062500 10.783000
H 7.001152 11.531752 13.284745 11.074982 1.159617 11.402716 0.062500 10.783000
O 6.997272 11.803419 13.444433 -0.512743 -0.534415 -4.199474 1.000000 -21.566000
H 6.836123 12.019388 13.278011 -6.501801 -3.976855 -2.793613 0.062500 10.783000
H 10.795788 3.622671 1.390574 3.849023 -3.037351 15.608707 0.062500 10.783000
O 10.885059 3.914591 1.279955 2.049389 1.704758 2.392031 1.000000 -21.566000
H 10.671621 4.141508 1.371025 -8.764300 0.305656 1.319542 0.062500 10.783000
H 6.865123 7.525739 0.049486 -10.773752 -15.163129 5.522407 0.062500 10.783000
O 7.176356 7.564246 0.136987 -2.824333 4.408950 -1.550388 1.000000 -21.566000
H 7.204038 7.487124 0.456280 -1.536604 -5.386784 -0.567382 0.062500 10.783000
H 7.464852 1.981743 5.804085 -9.469462 3.001831 3.042963 0.062500 10.783000
O 7.464014 1.935090 6.124342 -1.337574 -4.968977 1.067302 1.000000 -21.566000
H 7.699188 1.697073 6.171409 0.548542 -7.521214 -6.567013 0.062500 10.783000
H 8.003395 3.726555 4.176860 -2.465671 11.974666 6.089741 0.062500 10.783000
O 7.695482 3.764314 4.203770 -4.134474 2.408180 1.133007 1.000000 -21.566000
H 7.558414 3.670053 3.919961 6.651235 -3.859361 7.018599 0.062500 10.783000
H 5.706801 7.986827 8.486545 17.456742 6.432383 4.187633 0.062500 10.783000
O 5.876788 8.169870 8.279775 -0.527497 4.657925 1.157606 1.000000 -21.566000
H 6.009092 7.989551 8.057521 -2.555578 2.470106 -6.404626 0.062500 10.783000
H 8.640829 3.779382 4.262107 -3.783940 -2.028250 -2.049974 0.062500 10.783000
O 8.768900 4.055192 4.114153 2.671430 0.160082 0.415216 1.000000 -21.566000
H 8.850772 4.248148 4.359483 1.228956 7.862922 -3.775644 0.062500 10.783000
H 13.241485 4.289370 13.731477 4.095702 -1.471672 4.654209 0.062500 10.783000
O 12.939412 4.213490 13.638433 1.555370 0.123162 -2.555116 1.000000 -21.566000
H 12.789744 4.505942 13.633680 -2.608511 0.729538 5.796439 0.062500 10.783000
H 11.786947 5.668444 7.832451 -9.488632 1.131282 -0.595405 0.062500 10.783000
O 11.903249 5.951972 7.709400 2.642278 -3.782289 0.101128 1.000000 -21.566000
H 11.750340 6.014651 7.435409 8.997268 -15.930252 -10.357445 0.062500 10.783000
H 0.132150 4.369593 10.178620 -18.008933 1.724872 0.773735 0.062500 10.783000
O 14.685343 4.552720 9.992935 -0.832807 1.270814 -3.563286 1.000000 -21.566000
H 14.578459 4.836030 10.119963 0.365036 -2.787841 5.170872 0.062500 10.783000
H 14.191086 8.190065 9.622207 -4.213729 10.963997 -4.302068 0.062500 10.783000
O 14.460919 8.169475 9.435367 0.989787 -4.120653 0.550402 1.000000 -21.566000
H 14.394495 8.083772 9.131237 -6.276009 4.449155 -3.155711 0.062500 10.783000
H 14.640874 6.681828 8.997532 0.485056 -19.325581 -5.807302 0.062500 10.783000
O 14.600364 6.364937 9.062371 2.510583 -1.225900 1.311583 1.000000 -21.566000
H 0.007860 6.228629 8.810459 -4.362888 4.014179 7.400390 0.062500 10.783000
H 6.443288 13.385977 5.414309 6.264772 15.541612 7.092704 0.062500 10.783000
O 6.400969 13.078071 5.510323 0.806103 -3.121322 -0.685022 1.000000 -21.566000
H 6.675817 13.038254 5.659014 -4.802531 5.247529 21.694292 0.062500 10.783000
H 6.868942 1.774464 6.278285 10.735323 -9.152561 -11.556959 0.062500 10.783000
O 6.562600 1.693838 6.198212 0.447746 -1.530570 -0.483930 1.000000 -21.566000
H 6.576450 1.409473 6.049703 -0.791914 -8.413879 1.787452 0.062500 10.783000
H 5.387494 0.317127 9.238680 -1.086234 -0.740793 1.746459 0.062500 10.783000
O 5.492526 0.189524 8.951492 2.562358 1.074076 1.847974 1.000000 -21.566000
H 5.519016 0.409643 8.716816 7.574573 -8.430149 -4.392411 0.062500 10.783000
H 1.813671 5.322252 5.817347 -4.328527 4.891391 2.355064 0.062500 10.783000
O 2.073205 5.391228 5.651787 3.209954 -3.282172 0.569154 1.000000 -21.566000
H 1.944442 5.510131 5.390597 15.573197 0.947853 6.598024 0.062500 10.783000
H 8.709068 4.425423 8.666661 0.091240 -4.200011 6.234655 0.062500 10.783000
O 8.683105 4.568454 8.952449 -2.458636 -1.138104 -0.137976 1.000000 -21.566000
H 8.454623 4.467131 9.141172 6.662548 3.423889 -4.645864 0.062500 10.783000
H 2.222861 1.351436 0.311851 1.808411 2.026643 -1.481301 0.062500 10.783000
O 2.187726 1.321219 0.628829 -0.207881 -0.537797 -4.073361 1.000000 -21.566000
H 2.133433 1.617543 0.740293 13.536811 -20.856492 24.009101 0.062500 10.783000
H 9.262744 7.557918 4.670045 -3.463048 4.329190 8.502908 0.062500 10.783000
O 9.555615 7.487692 4.757845 1.122130 0.558827 1.723095 1.000000 -21.566000
H 9.732345 7.695076 4.597577 -4.086169 0.329221 -7.802257 0.062500 10.783000
H 6.739991 5.800476 9.486009 -5.557068 -1.726376 3.244093 0.062500 10.783000
O 7.066036 5.853270 9.480040 -1.191398 0.320793 0.480262 1.000000 -21.566000
H 7.144284 6.066963 9.254445 2.834691 6.520157 -1.555790 0.062500 10.783000
H 9.724951 5.525995 7.287355 2.960526 6.216945 -7.984190 0.062500 10.783000
O 9.729720 5.235793 7.389805 -0.626114 -0.719580 -1.889399 1.000000 -21.566000
H 9.497713 5.197982 7.593443 6.203877 -2.310321 6.060283 0.062500 10.783000
H 8.977721 6.964108 1.112537 5.933178 7.879384 -8.731522 0.062500 10.783000
O 8.825355 7.011477 0.837467 -0.106185 -0.237029 0.221841 1.000000 -21.566000
H 8.890561 6.755194 0.650480 -6.392119 0.944891 -1.670523 0.062500 10.783000
H 1.479466 4.970495 8.681551 -2.154806 0.263372 15.279142 0.062500 10.783000
O 1.420336 4.787955 8.424093 3.225482 -0.891922 -0.032016 1.000000 -21.566000
H 1.694138 4.664467 8.298598 7.483703 14.945170 -5.289927 0.062500 10.783000
H 13.873228 4.615833 6.927184 2.231474 -0.350900 -13.583211 0.062500 10.783000
O 13.903014 4.293225 6.941131 -0.552637 -2.142706 -0.374231 1.000000 -21.566000
H 14.084102 4.207394 7.195677 13.169964 -8.323856 2.923421 0.062500 10.783000
H 12.597104 7.695481 8.198758 -4.061696 9.961466 -2.281869 0.062500 10.783000
O 12.817188 7.619538 7.969520 -0.077398 3.820132 3.497013 1.000000 -21.566000
H 12.620479 7.503706 7.743993 -4.370516 4.698243 3.990210 0.062500 10.783000
H 0.241821 6.873038 9.548888 2.090015 11.496345 -10.451970 0.062500 10.783000
O 0.483518 6.992729 9.689681 0.180755 0.148165 1.574126 1.000000 -21.566000
H 0.515476 6.878864 9.999334 -1.321599 4.563855 -0.247354 0.062500 10.783000
H 14.164419 5.462116 4.666377 -8.323428 0.683339 -2.132069 0.062500 10.783000
O 14.049674 5.687674 4.476506 0.762482 0.633539 1.873523 1.000000 -21.566000
H 14.134162 5.968152 4.586962 1.900895 -3.958442 6.741730 0.062500 10.783000
H 3.818608 2.601174 8.891832 6.771019 14.716504 -3.592903 0.062500 10.783000
O 3.516139 2.691887 8.822148 0.728620 -5.184817 1.719441 1.000000 -21.566000
H 3.529960 2.973319 8.677250 -5.322842 -0.690143 10.054625 0.062500 10.783000
H 3.190591 5.595017 1.619716 6.138037 2.220172 9.112683 0.062500 10.783000
O 3.484946 5.531376 1.725129 -0.728318 -1.895166 0.589575 1.000000 -21.566000
H 3.668221 5.584529 1.458797 8.922337 13.282690 -5.753177 0.062500 10.783000
H 1.962092 14.677885 8.581263 5.135394 -2.842550 -4.226614 0.062500 10.783000
O 1.734541 0.108698 8.431844 -3.395252 0.983978 4.717410 1.000000 -21.566000
H 1.451726 14.723356 8.521329 -6.334623 3.424898 3.162397 0.062500 10.783000
H 1.392822 5.539323 9.209435 -10.155522 0.972239 7.354166 0.062500 10.783000
O 1.569660 5.338886 9.040304 -1.556133 2.040696 2.630817 1.000000 -21.566000
H 1.748768 5.516120 8.835741 1.352217 17.776384 7.331273 0.062500 10.783000
H 5.280440 7.152867 9.488231 3.283970 -0.442370 7.526878 0.062500 10.783000
O 5.588297 7.050615 9.542714 -0.843813 -3.238307 1.591879 1.000000 -21.566000
H 5.725520 7.308642 9.666542 -3.156886 -5.736055 5.417974 0.062500 10.783000
H 5.006132 4.461423 9.459741 -5.251169 -3.169465 10.630243 0.062500 10.783000
O 5.263194 4.315660 9.332811 2.881906 0.420056 0.052249 1.000000 -21.566000
H 5.207065 4.005627 9.309569 2.182607 -8.347107 -4.712974 0.062500 10.783000
H 0.507800 6.482783 5.448233 8.657393 4.533276 -7.842364 0.062500 10.783000
O 0.545745 6.186596 5.340667 0.774331 -1.355671 -0.151670 1.000000 -21.566000
H 0.783154 6.068345 5.499597 3.177069 -3.970856 -11.694856 0.062500 10.783000
H 9.033700 8.214548 4.313502 -1.265941 3.891129 1.928242 0.062500 10.783000
O 9.225414 8.453456 4.202265 0.562236 2.765200 -1.154465 1.000000 -21.566000
H 9.521956 8.334902 4.224095 -10.113116 6.001660 -2.542605 0.062500 10.783000
H 11.497426 3.585391 2.177131 -2.851190 -6.518925 5.640684 0.062500 10.783000
O 11.331582 3.785665 2.345197 0.272215 -1.886668 -3.111180 1.000000 -21.566000
H 11.513870 3.968035 2.538545 -13.081677 -3.949020 8.875531 0.062500 10.783000
H 9.907534 6.824773 8.485436 -6.570701 5.859580 -4.296475 0.062500 10.783000
O 9.859092 6.544822 8.335662 -1.981595 -1.176285 -1.057268 1.000000 -21.566000
H 9.765695 6.658113 8.042051 -1.411213 -10.674074 -7.587047 0.062500 10.783000
H 0.126629 3.742718 8.944659 8.309502 4.960779 24.135656 0.062500 10.783000
O 0.424233 3.642819 8.902042 -0.001433 1.323093 -1.542893 1.000000 -21.566000
H 0.526612 3.612684 9.199519 2.139395 0.460650 4.245780 0.062500 10.783000
H 12.942591 6.157959 8.771910 -16.645447 6.278990 -19.493493 0.062500 10.783000
O 12.945150 5.823750 8.784489 -2.467141 -0.944747 -0.098440 1.000000 -21.566000
H 12.809785 5.779468 8.493625 3.448486 6.059749 -0.745011 0.062500 10.783000
H 1.515301 3.540714 8.974972 -0.102626 9.943406 9.445146 0.062500 10.783000
O 1.549809 3.323659 8.747968 -2.291255 -1.615363 1.327166 1.000000 -21.566000
H 1.426882 3.048952 8.870846 3.514594 -3.826280 0.741210 0.062500 10.783000
H 12.180917 7.256768 12.192559 -16.268181 -15.054056 -3.372430 0.062500 10.783000
O 11.945271 7.339429 11.980740 0.733668 0.120910 -2.238185 1.000000 -21.566000
H 11.944217 7.122983 11.755576 -5.002027 -4.635225 -2.017754 0.062500 10.783000
H 2.326587 2.404815 7.599699 -0.349521 -10.571496 -5.963534 0.062500 10.783000
O 2.442607 2.691957 7.527889 -0.012508 3.100958 -1.783115 1.000000 -21.566000
H 2.738490 2.621773 7.425064 -4.782751 -4.259563 -20.036045 0.062500 10.783000
H 2.776668 4.190915 9.143877 -6.607619 -9.869404 7.580312 0.062500 10.783000
O 2.977532 4.282015 9.384595 -0.030085 -1.393303 -1.560648 1.000000 -21.566000
H 2.908013 4.119389 9.647283 -14.599948 6.882809 -6.756901 0.062500 10.783000
H 3.061739 5.817315 9.431169 4.919496 1.455318 17.610997 0.062500 10.783000
O 2.977933 5.565322 9.256528 1.076687 1.530643 -2.968146 1.000000 -21.566000
H 2.704728 5.440165 9.353877 8.247836 4.508198 6.184580 0.062500 10.783000
H 2.907610 6.018689 10.005639 -0.102429 10.650381 7.831088 0.062500 10.783000
O 3.229190 6.007187 10.017583 -0.693115 -2.307825 -1.305285 1.000000 -21.566000
H 3.311900 6.290892 10.155198 8.292046 5.949260 7.475925 0.062500 10.783000
H 4.377549 1.523049 6.930242 0.635892 -10.294652 -5.734314 0.062500 10.783000
O 4.665738 1.514484 6.793283 5.192100 3.287558 1.292968 1.000000 -21.566000
H 4.827345 1.777903 6.885770 10.919070 2.458841 -3.235556 0.062500 10.783000
H 7.217854 5.191706 10.998725 2.961701 8.763956 -1.011268 0.062500 10.783000
O 7.338475 5.386757 11.216640 -1.406346 -0.034195 2.702934 1.000000 -21.566000
H 7.100429 5.605318 11.282416 -9.794143 -13.579530 -3.947491 0.062500 10.783000
H 4.884470 8.073864 11.877896 0.588151 10.157847 -1.982126 0.062500 10.783000
O 5.108843 8.296272 11.937487 0.530578 -0.601330 -0.278721 1.000000 -21.566000
H 5.044956 8.492915 12.196009 -8.543625 6.922258 -4.551741 0.062500 10.783000
H 6.436134 6.392459 5.293126 -2.038734 3.018970 -6.542828 0.062500 10.783000
O 6.713848 6.242805 5.325976 -2.694631 3.052114 -1.431913 1.000000 -21.566000
H 6.749016 6.124173 5.620494 9.156088 -8.170105 -6.971623 0.062500 10.783000
H 6.855983 2.070530 7.161282 -4.435880 6.153367 -4.860163 0.062500 10.783000
O 6.566587 2.206946 7.176915 0.340434 -3.043039 0.057107 1.000000 -21.566000
H 6.312767 2.054424 7.073815 -3.778075 2.675186 6.135737 0.062500 10.783000
H 10.160402 3.369906 13.688900 -8.628692 10.127155 -6.674123 0.062500 10.783000
O 10.311448 3.502558 13.443682 4.924758 -1.810431 -1.051815 1.000000 -21.566000
H 10.167099 3.338843 13.199730 -2.286297 -5.540573 2.411577 0.062500 10.783000
H 8.444941 8.226534 9.070854 -5.333574 -0.394749 2.882767 0.062500 10.783000
O 8.363916 8.368003 9.357622 -2.580696 0.959065 1.266094 1.000000 -21.566000
H 8.160370 8.146135 9.489129 3.392521 -3.054864 9.143247 0.062500 10.783000
H 11.856252 4.603422 11.211152 -9.173399 3.489675 -0.855964 0.062500 10.783000
O 11.534634 4.651964 11.159353 0.406527 -2.460336 0.536711 1.000000 -21.566000
H 11.481455 4.611056 10.840467 4.980193 -8.422824 -2.086079 0.062500 10.783000
H 9.549499 6.913558 10.516190 -3.456725 10.110291 -10.308350 0.062500 10.783000
O 9.703485 6.890630 10.233084 1.321909 2.572652 3.514953 1.000000 -21.566000
H 10.027966 6.845333 10.292182 10.147076 1.929673 -1.852795 0.062500 10.783000
H 12.320096 8.648850 7.335779 2.599779 -2.847803 7.055886 0.062500 10.783000
O 12.177687 8.840719 7.562907 0.577281 -2.144311 1.543004 1.000000 -21.566000
H 11.880823 8.909074 7.468514 -1.778318 2.780273 1.451681 0.062500 10.783000
H 1.080348 9.060338 7.587597 -2.229610 3.545848 -13.717345 0.062500 10.783000
O 1.007396 9.113633 7.888295 2.148395 -2.193490 4.752751 1.000000 -21.566000
H 1.303591 9.146387 8.014078 5.902919 6.373165 -16.983199 0.062500 10.783000
H 1.025109 9.020324 6.589860 -3.631771 -1.219807 -5.047463 0.062500 10.783000
O 0.837325 9.293504 6.595060 -2.008137 3.321772 1.156457 1.000000 -21.566000
H 1.025693 9.538718 6.685014 -4.789801 -12.600380 3.850073 0.062500 10.783000
H 2.270938 4.385406 7.846962 -17.638965 -0.064244 1.138619 0.062500 10.783000
O 2.163697 4.679169 7.908004 1.945207 1.800194 2.772553 1.000000 -21.566000
H 2.372915 4.877293 7.770279 -3.512682 -0.377586 -1.652204 0.062500 10.783000
H 5.593819 6.525754 5.148311 2.739076 2.768911 10.552780 0.062500 10.783000
O 5.817745 6.298421 5.102904 0.062319 0.232192 1.987123 1.000000 -21.566000
H 5.710680 6.042037 5.280810 6.752490 4.983349 12.480533 0.062500 10.783000
H 1.305741 10.860171 7.723732 2.976886 16.321530 1.703098 0.062500 10.783000
O 1.131667 11.113554 7.653263 1.382098 -0.675477 1.777852 1.000000 -21.566000
H 0.836926 10.994001 7.573107 -0.368706 -5.216581 -2.546518 0.062500 10.783000
H 3.358065 5.663320 8.764630 -4.414807 -4.326580 0.949689 0.062500 10.783000
O 3.545585 5.771469 8.529631 1.595094 -1.184498 -1.054832 1.000000 -21.566000
H 3.608225 5.525144 8.327049 -3.727276 -9.515252 1.513439 0.062500 10.783000
H 4.761401 5.899694 4.261927 4.237363 -1.075554 0.112417 0.062500 10.783000
O 4.855285 5.607070 4.357283 5.125520 -2.293837 -1.127048 1.000000 -21.566000
H 4.693533 5.386139 4.196913 -6.706919 8.852619 8.395182 0.062500 10.783000
H 6.312641 7.492607 3.015440 -12.994540 -1.264220 1.809642 0.062500 10.783000
O 6.620123 7.542816 3.104535 -0.982828 -0.784412 -3.654457 1.000000 -21.566000
H 6.747733 7.761328 2.927469 2.907516 0.576930 8.892455 0.062500 10.783000
H 3.086287 7.356505 4.328393 8.918786 -4.439499 2.597885 0.062500 10.783000
O 2.994221 7.233679 4.034801 -1.356216 1.013449 -2.033228 1.000000 -21.566000
H 3.203659 7.011694 3.905735 8.359633 3.845947 -16.976182 0.062500 10.783000
H 6.109488 6.012241 9.441301 2.576213 -4.134959 -4.067717 0.062500 10.783000
O 6.221948 5.728913 9.519712 -1.780993 -2.261641 -0.125729 1.000000 -21.566000
H 5.964505 5.540822 9.476442 0.094654 2.770337 -4.218182 0.062500 10.783000
H 13.122355 6.825369 8.490584 3.514650 0.710111 8.652568 0.062500 10.783000
O 12.934888 6.615732 8.630251 2.236659 5.438277 -1.857194 1.000000 -21.566000
H 12.675192 6.765137 8.732378 7.002692 -1.651869 4.173395 0.062500 10.783000
H 12.682781 4.130024 7.656563 -3.162094 -7.615318 -12.042487 0.062500 10.783000
O 12.562037 4.435965 7.704362 -1.148416 1.596072 -0.149181 1.000000 -21.566000
H 12.750080 4.607834 7.499789 4.074492 -5.608943 6.790707 0.062500 10.783000
H 12.091757 4.244945 7.893492 0.868316 -4.193368 10.258814 0.062500 10.783000
O 11.824032 4.047419 7.942414 0.038952 1.710335 -1.560231 1.000000 -21.566000
H 11.652141 4.026398 7.674207 -1.863028 2.766165 -1.949018 0.062500 10.783000
H 11.636532 10.775547 11.983100 8.405067 13.228846 5.543231 0.062500 10.783000
O 11.397654 10.615625 12.120135 0.595419 1.605584 0.227042 1.000000 -21.566000
H 11.489460 10.327834 12.179655 -17.534747 11.788888 -9.878077 0.062500 10.783000
H 1.300343 5.684502 6.096600 3.887311 -0.811461 6.059614 0.062500 10.783000
O 1.208288 5.961517 5.991565 2.956608 -1.786624 1.802117 1.000000 -21.566000
H 1.473078 6.156044 6.022602 -10.333547 -4.066495 -4.852454 0.062500 10.783000
H 2.519909 7.837736 6.901911 12.311477 4.156378 -6.584639 0.062500 10.783000
O 2.491446 7.623132 6.659614 -3.561169 3.776488 2.005651 1.000000 -21.566000
H 2.203541 7.473743 6.649782 5.813331 -10.345722 -4.744049 0.062500 10.783000
H 3.333931 7.451396 5.618893 0.165461 1.371272 7.818273 0.062500 10.783000
O 3.633204 7.331907 5.594639 -0.986985 1.966327 -1.671899 1.000000 -21.566000
H 3.845859 7.523112 5.751127 -0.033729 -9.851763 3.322194 0.062500 10.783000
H 4.061991 5.482268 6.447078 -10.116484 -0.433901 16.068081 0.062500 10.783000
O 4.271350 5.696923 6.588999 1.345077 -1.941689 -1.137401 1.000000 -21.566000
H 4.146203 5.984023 6.616627 -6.616896 7.475540 5.885199 0.062500 10.783000
H 4.186281 5.546825 8.877591 2.540763 6.976996 -9.961905 0.062500 10.783000
O 4.245491 5.232853 8.866625 0.861814 0.956986 3.187810 1.000000 -21.566000
H 3.985816 5.092192 9.000524 1.980075 -12.290018 -3.158416 0.062500 10.783000
H 6.139759 5.410537 7.479710 -0.860498 6.457332 10.506613 0.062500 10.783000
O 5.982613 5.178395 7.629562 0.183652 2.675925 -0.489260 1.000000 -21.566000
H 5.845983 4.951656 7.438541 2.488791 -0.548729 -14.195653 0.062500 10.783000
H 5.128419 5.086896 8.325373 0.805491 -22.137120 -3.402637 0.062500 10.783000
O 4.893697 5.308639 8.310548 -0.309622 -3.546996 -2.306296 1.000000 -21.566000
H 4.622216 5.227174 8.465035 6.085935 -7.483164 -7.595189 0.062500 10.783000
H 4.962128 7.972358 3.097463 0.047010 5.214644 3.141006 0.062500 10.783000
O 4.676228 7.872958 3.187799 1.564382 -0.655722 1.739877 1.000000 -21.566000
H 4.754319 7.576211 3.276633 8.778488 -2.923797 4.680219 0.062500 10.783000
H 1.875805 7.754565 3.374208 9.094938 8.480375 -5.190985 0.062500 10.783000
O 1.916381 7.440055 3.385715 2.413358 0.146873 5.273388 1.000000 -21.566000
H 2.209458 7.389601 3.262011 -0.008156 6.838628 -1.822976 0.062500 10.783000
H 8.448260 10.051212 4.688878 -2.295094 3.222726 5.578610 0.062500 10.783000
O 8.536409 10.072851 4.991772 0.895854 -0.205745 -2.949459 1.000000 -21.566000
H 8.652711 10.368454 5.081904 5.690780 -5.182713 -3.491592 0.062500 10.783000
H 11.078345 7.067171 0.354154 0.352838 -6.026517 9.585141 0.062500 10.783000
O 11.180218 7.122988 0.653640 -1.212076 -1.017439 -2.574173 1.000000 -21.566000
H 11.022135 6.953793 0.858917 1.756567 -0.682839 -10.628746 0.062500 10.783000
H 9.609248 10.668333 13.448369 2.638723 12.875113 -2.650838 0.062500 10.783000
O 9.381940 10.707603 13.238257 0.705567 -0.779811 -2.396973 1.000000 -21.566000
H 9.386694 11.004805 13.106319 -16.106724 1.344793 -4.474401 0.062500 10.783000
H 8.501294 5.414469 8.948617 -6.117995 -3.598346 -2.413009 0.062500 10.783000
O 8.624797 5.630716 9.170745 -4.395480 -3.151610 1.755794 1.000000 -21.566000
H 8.888516 5.509830 9.301720 9.161918 6.523648 -1.263117 0.062500 10.783000
H 9.291674 8.167827 9.126400 -2.348302 -1.035132 4.050807 0.062500 10.783000
O 9.234416 8.221056 8.814945 -4.673755 -4.059107 0.710899 1.000000 -21.566000
H 8.947651 8.092805 8.758504 4.077842 -8.815219 -1.158481 0.062500 10.783000
H 2.137921 5.384863 6.252220 8.333038 5.931576 5.669116 0.062500 10.783000
O 2.258856 5.382777 6.540691 -1.697642 -4.405055 2.022358 1.000000 -21.566000
H 2.073233 5.188667 6.712426 -4.776894 3.537069 7.806338 0.062500 10.783000
H 1.322824 10.934349 9.646448 -8.330794 8.441557 6.581868 0.062500 10.783000
O 1.389067 10.663381 9.487569 3.284239 2.037683 1.259663 1.000000 -21.566000
H 1.464237 10.774658 9.204206 1.819329 6.628819 3.330045 0.062500 10.783000
H 1.111960 3.640675 7.463841 1.141210 -8.187618 -5.000513 0.062500 10.783000
O 1.302476 3.894575 7.361262 5.266729 -1.506207 0.342204 1.000000 -21.566000
H 1.309172 3.880021 7.033036 -20.796695 -10.001958 -2.385469 0.062500 10.783000
H 13.766989 8.533278 7.664551 15.296681 -0.853148 3.390115 0.062500 10.783000
O 13.954617 8.681344 7.889756 -1.530197 1.697279 -0.999899 1.000000 -21.566000
H 13.793433 8.962070 7.928737 -3.018868 8.454526 4.860922 0.062500 10.783000
H 13.781294 4.211953 11.374671 -6.150710 7.341314 5.488847 0.062500 10.783000
O 13.838137 4.497405 11.248420 -2.992517 1.677106 1.585795 1.000000 -21.566000
H 13.577893 4.686774 11.328924 -6.649811 8.526692 -0.292556 0.062500 10.783000
H 4.549351 7.593398 10.758265 1.310204 0.675733 5.025830 0.062500 10.783000
O 4.267485 7.480923 10.866210 0.261950 -2.145575 1.838372 1.000000 -21.566000
H 4.045820 7.627062 10.686278 5.157615 3.515154 -1.737718 0.062500 10.783000
H 6.415255 10.243056 8.151008 2.095436 -10.353970 2.448390 0.062500 10.783000
O 6.591051 9.978453 8.190816 0.240500 2.471625 -1.535382 1.000000 -21.566000
H 6.398697 9.716874 8.173601 0.799572 1.772048 -3.223053 0.062500 10.783000
H 5.126623 5.599917 6.651200 -3.380781 -10.386414 -2.818176 0.062500 10.783000
O 5.306624 5.537329 6.902752 0.013050 0.890313 0.716012 1.000000 -21.566000
H 5.403078 5.810746 7.036155 7.368091 -7.727240 8.587064 0.062500 10.783000
H 4.035872 9.402626 5.180586 8.384184 -0.932103 8.196609 0.062500 10.783000
O 3.958839 9.295362 4.887470 1.514642 -0.829801 0.860000 1.000000 -21.566000
H 3.911312 9.540841 4.681343 -16.297927 -8.444606 -7.672894 0.062500 10.783000
H 5.367861 8.783823 4.485204 -10.440057 -3.423879 -7.706068 0.062500 10.783000
O 5.244478 8.653413 4.747999 3.286804 -2.008214 3.377613 1.000000 -21.566000
H 5.131356 8.347650 4.684266 -10.652757 -5.517300 10.008924 0.062500 10.783000
H 4.665514 6.960988 6.111504 -3.426493 0.054062 12.575073 0.062500 10.783000
O 4.966852 7.102330 6.111627 0.688305 0.030918 2.513081 1.000000 -21.566000
H 4.919243 7.420861 6.053136 8.901303 11.457520 -1.928370 0.062500 10.783000
H 5.811441 5.053905 8.612498 5.646006 -5.700394 -5.186516 0.062500 10.783000
O 5.858123 5.329311 8.472474 -1.568145 0.950231 1.434631 1.000000 -21.566000
H 5.867639 5.265613 8.157217 -6.539483 -16.993404 -4.109308 0.062500 10.783000
H 12.702864 7.734706 3.078282 0.830025 -6.819530 6.618782 0.062500 10.783000
O 12.468198 7.627361 3.251843 0.388202 2.495611 -0.382008 1.000000 -21.566000
H 12.308312 7.427242 3.059860 -1.541996 4.408709 3.590810 0.062500 10.783000
H 11.333997 4.970472 10.162848 -3.676684 -5.915636 1.574274 0.062500 10.783000
O 11.449855 4.750937 10.384499 2.055693 2.156736 -0.187679 1.000000 -21.566000
H 11.761492 4.817346 10.372201 -2.452290 10.484219 -17.858691 0.062500 10.783000
H 9.361768 9.935596 3.052626 -9.160550 1.312471 0.537470 0.062500 10.783000
O 9.510996 10.172235 3.218105 2.936663 0.701437 -0.484614 1.000000 -21.566000
H 9.586289 10.058138 3.496383 11.037528 -8.197252 -10.319209 0.062500 10.783000
H 8.489084 4.722066 7.000515 -21.139351 5.503186 -1.848411 0.062500 10.783000
O 8.472742 4.506401 6.776834 -0.284368 0.533106 -0.520181 1.000000 -21.566000
H 8.179388 4.373968 6.807321 9.859743 7.864404 -4.371291 0.062500 10.783000
H 0.167791 4.565085 6.287493 2.615814 11.302290 4.323398 0.062500 10.783000
O 0.302806 4.396279 6.521746 -2.977949 0.251235 2.466883 1.000000 -21.566000
H 0.361530 4.614639 6.755860 1.498824 4.679216 -5.222835 0.062500 10.783000
H 14.714778 11.573066 8.750787 12.615438 -5.838912 -5.800510 0.062500 10.783000
O 14.500363 11.437689 8.960833 -1.774717 1.769810 0.175035 1.000000 -21.566000
H 14.592755 11.130285 8.988021 3.723601 3.666727 5.425194 0.062500 10.783000
H 2.329408 9.171219 8.656430 3.701447 -0.392416 5.396085 0.062500 10.783000
O 2.548212 9.379805 8.572331 -0.712219 0.229894 0.493854 1.000000 -21.566000
H 2.832079 9.308246 8.684752 -4.861246 -8.984275 -4.715186 0.062500 10.783000
H 13.961439 10.226896 7.277440 -3.889515 11.107812 1.767532 0.062500 10.783000
O 13.750097 10.288353 7.050325 -0.702086 -1.961978 1.686979 1.000000 -21.566000
H 13.874103 10.182656 6.772103 -10.678346 -5.121071 18.643238 0.062500 10.783000
H 1.567589 7.719065 10.795185 -13.305205 9.943129 8.356939 0.062500 10.783000
O 1.727045 8.014158 10.812200 2.014604 2.090310 0.031221 1.000000 -21.566000
H 1.633573 8.163456 10.537279 -6.182016 4.038168 6.117347 0.062500 10.783000
H 4.823731 7.993545 7.031871 -6.638572 10.900494 7.867574 0.062500 10.783000
O 5.092487 8.125638 6.904680 -5.611926 -3.027862 -0.952141 1.000000 -21.566000
H 5.030855 8.436810 6.894246 3.892175 -14.392607 -5.240430 0.062500 10.783000
H 6.506940 8.466390 4.889912 7.963660 4.977450 -1.466001 0.062500 10.783000
O 6.656503 8.663464 5.089438 0.402208 0.623040 -0.741338 1.000000 -21.566000
H 6.875043 8.848417 4.933832 0.050537 3.465836 2.610590 0.062500 10.783000
H 7.293935 12.882397 11.420785 -8.306666 7.305194 12.586898 0.062500 10.783000
O 7.410880 12.585528 11.340793 0.234702 0.807495 -2.965131 1.000000 -21.566000
H 7.683327 12.534553 11.508339 9.868134 15.175898 -9.551935 0.062500 10.783000
H 8.026460 7.894764 4.781455 7.905362 -3.883422 -7.782602 0.062500 10.783000
O 7.905189 7.746781 4.512808 0.923926 -0.598534 0.051637 1.000000 -21.566000
H 7.600752 7.647264 4.540895 10.481292 1.153556 -3.210893 0.062500 10.783000
H 2.331228 11.473025 7.429149 1.310575 2.104901 9.594850 0.062500 10.783000
O 2.586776 11.447914 7.208169 -0.477513 -1.718072 -2.026120 1.000000 -21.566000
H 2.856107 11.439368 7.397815 -4.519906 -9.978281 2.836489 0.062500 10.783000
H 7.375340 8.947685 3.188063 3.206234 6.588767 -1.206662 0.062500 10.783000
O 7.133933 8.999617 3.409783 1.783921 -1.242067 1.751970 1.000000 -21.566000
H 7.005344 8.718661 3.455940 -5.924932 12.739343 -16.211323 0.062500 10.783000
H 9.598153 8.753737 11.192932 -5.847032 2.855722 4.689686 0.062500 10.783000
O 9.915229 8.792176 11.186045 3.474364 0.154781 -3.298444 1.000000 -21.566000
H 10.060269 8.722764 10.914271 6.334026 6.753219 2.445482 0.062500 10.783000
H 9.636486 4.451857 4.091634 -1.431050 1.316279 -12.830766 0.062500 10.783000
O 9.815221 4.198841 4.180463 2.045520 3.209083 3.323616 1.000000 -21.566000
H 9.738576 3.946438 3.985689 9.162760 4.274068 2.957373 0.062500 10.783000
H 9.611157 4.701008 2.811757 -4.957264 1.770968 -5.258184 0.062500 10.783000
O 9.488599 4.581002 3.071359 5.130948 -2.671901 -1.695910 1.000000 -21.566000
H 9.430764 4.262750 3.056908 -1.192456 -13.019603 9.487844 0.062500 10.783000
H 11.509859 5.966586 5.260923 -4.344319 2.935884 -4.050451 0.062500 10.783000
O 11.205424 5.909050 5.326173 -2.758158 1.464474 -3.681985 1.000000 -21.566000
H 11.118458 6.084431 5.587180 5.777148 2.833673 -2.916663 0.062500 10.783000
H 2.828403 9.142074 9.689255 -1.128683 -2.541346 21.383862 0.062500 10.783000
O 2.874159 9.449585 9.746376 -0.707606 1.253801 1.146015 1.000000 -21.566000
H 2.593390 9.587738 9.660677 -3.178999 -9.253009 -3.421436 0.062500 10.783000
H 1.168982 13.422033 5.421299 -8.876704 -4.463230 1.797599 0.062500 10.783000
O 0.864976 13.506947 5.402118 0.614358 -2.265020 -0.631056 1.000000 -21.566000
H 0.830212 13.606078 5.113717 -11.722532 -5.531348 -8.626368 0.062500 10.783000
H 14.670198 6.256031 4.979747 12.677555 14.557810 -2.874881 0.062500 10.783000
O 14.383564 6.384471 4.940849 -0.545507 2.037692 0.250283 1.000000 -21.566000
H 14.213726 6.379698 5.223882 9.367755 -9.157685 22.869969 0.062500 10.783000
H 3.176704 11.168744 4.062355 11.805661 -15.453507 13.059285 0.062500 10.783000
O 3.402906 11.133240 4.265835 4.307642 1.948424 0.916777 1.000000 -21.566000
H 3.593448 10.913489 4.113947 8.698203 0.183788 2.825862 0.062500 10.783000
H 7.685155 7.280202 5.618056 2.283691 -0.851018 -0.610970 0.062500 10.783000
O 7.608332 7.589589 5.620362 1.238780 -1.882293 -0.552246 1.000000 -21.566000
H 7.796919 7.772895 5.424859 -8.042740 0.320741 -8.637026 0.062500 10.783000
H 8.877876 7.734185 6.054077 8.220440 5.961146 7.090707 0.062500 10.783000
O 8.837773 7.589888 6.335352 0.612402 -0.288581 3.459385 1.000000 -21.566000
H 8.614289 7.772877 6.474629 2.424304 14.838878 -6.246244 0.062500 10.783000
H 7.525148 7.736108 8.165517 8.176881 13.667990 -3.537203 0.062500 10.783000
O 7.216558 7.746394 8.229647 -2.235950 3.870042 -0.420327 1.000000 -21.566000
H 7.055569 7.785401 7.954943 -8.559499 6.349989 6.555494 0.062500 10.783000
H 13.985936 11.463246 7.211304 5.348456 3.503606 -5.164801 0.062500 10.783000
O 14.028200 11.541507 7.524181 -0.995501 -2.118565 0.943351 1.000000 -21.566000
H 14.090410 11.240255 7.638236 7.812127 -5.493934 10.412787 0.062500 10.783000
H 14.665386 11.666698 5.347534 10.463518 -8.568731 3.358157 0.062500 10.783000
O 0.177067 11.739646 5.512507 -3.077151 1.455811 1.908155 1.000000 -21.566000
H 0.076773 11.899960 5.777913 16.485514 8.672455 3.635026 0.062500 10.783000
H 4.023525 11.227048 5.320554 -7.892115 0.359537 2.778877 0.062500 10.783000
O 3.983711 11.061068 5.604648 -1.505279 -0.455277 -0.916624 1.000000 -21.566000
H 4.153504 10.787075 5.613466 -16.761575 -1.607011 -8.975306 0.062500 10.783000
H 0.080480 9.905944 3.841042 8.407976 -1.816800 -7.796326 0.062500 10.783000
O 14.580085 9.679446 3.889339 1.215954 -1.094788 1.329523 1.000000 -21.566000
H 14.679505 9.397972 3.772608 4.634229 0.939702 -12.423672 0.062500 10.783000
H 9.578521 14.441325 5.121615 4.421706 -8.965796 -2.502452 0.062500 10.783000
O 9.318093 14.633688 5.181315 -0.196480 -3.101079 -2.546171 1.000000 -21.566000
H 9.132668 14.612877 4.914938 -19.836224 4.694575 -3.014471 0.062500 10.783000
H 9.210786 6.868643 11.258746 7.596331 2.641859 -5.659042 0.062500 10.783000
O 9.261864 6.872695 10.935571 0.863819 -0.334526 -3.052310 1.000000 -21.566000
H 9.080846 6.625351 10.818226 10.307795 -5.904977 8.896449 0.062500 10.783000
H 11.079501 6.792534 7.901421 18.816384 11.689332 19.301706 0.062500 10.783000
O 11.052816 7.070025 7.742108 1.207959 -1.143097 2.162918 1.000000 -21.566000
H 10.758703 7.103195 7.596731 -6.637414 -13.153029 -10.637799 0.062500 10.783000
H 9.375728 10.079957 0.400702 -9.083374 6.751750 3.763648 0.062500 10.783000
O 9.458319 9.870823 0.173514 -0.147790 4.790316 1.068565 1.000000 -21.566000
H 9.323221 9.588900 0.286765 19.055560 -3.946209 17.422261 0.062500 10.783000
H 13.504148 10.727773 9.529731 17.106189 3.040991 5.949590 0.062500 10.783000
O 13.627156 10.439812 9.492280 -0.839636 -0.003341 0.513265 1.000000 -21.566000
H 13.862166 10.393853 9.723030 5.091809 -0.354206 -1.873502 0.062500 10.783000
H 14.517348 1.187593 7.267618 12.795878 -6.945148 -11.716576 0.062500 10.783000
O 14.348997 1.207040 7.000169 -2.231241 0.784897 0.280199 1.000000 -21.566000
H 14.041648 1.158430 7.082885 -4.725244 -4.015336 -4.394510 0.062500 10.783000
H 13.669070 12.256922 10.497180 1.492720 0.154261 3.250318 0.062500 10.783000
O 13.647454 12.229019 10.820217 -2.683012 -1.230966 1.404300 1.000000 -21.566000
H 13.437529 12.461374 10.906842 0.745452 0.255858 -3.857101 0.062500 10.783000
H 12.000463 13.224682 4.285298 13.231720 -13.463580 6.861025 0.062500 10.783000
O 12.191664 13.369273 4.495341 -2.106925 0.018416 1.301170 1.000000 -21.566000
H 12.430535 13.153535 4.566952 -9.651101 -10.029000 -8.750443 0.062500 10.783000
H 10.225043 11.885178 12.638033 -4.397081 9.544010 -3.813781 0.062500 10.783000
O 10.465135 11.761643 12.453587 2.148248 0.636021 -1.381910 1.000000 -21.566000
H 10.561419 11.474321 12.549352 5.351924 -2.077770 4.302075 0.062500 10.783000
H 3.398083 11.721611 9.439524 13.685359 -0.941751 -4.545918 0.062500 10.783000
O 3.454493 11.688321 9.119824 -2.966373 -0.828211 1.746654 1.000000 -21.566000
H 3.231590 11.870880 8.967758 -7.732998 -0.765876 -4.167919 0.062500 10.783000
H 0.180851 11.563696 9.855151 4.606143 -0.499410 7.745076 0.062500 10.783000
O 0.223036 11.796296 9.625258 -0.721199 -2.249843 0.832956 1.000000 -21.566000
H 0.162021 11.662855 9.353407 -7.418315 -9.863406 9.398259 0.062500 10.783000
H 3.707293 8.324659 1.023527 4.223750 2.968233 -2.319882 0.062500 10.783000
O 3.902157 8.590764 1.037077 -0.902933 -2.733186 3.229770 1.000000 -21.566000
H 4.026717 8.634810 0.748334 -8.273327 -4.060396 -1.348731 0.062500 10.783000
H 14.487955 11.982875 7.132250 -10.204960 -4.227759 -2.049198 0.062500 10.783000
O 14.671751 12.235507 7.046959 -2.671872 -5.384923 0.290577 1.000000 -21.566000
H 14.627463 12.494950 7.236976 -10.789867 -0.912547 13.903066 0.062500 10.783000
H 4.435092 10.352875 8.963735 -7.584500 -18.373902 1.524716 0.062500 10.783000
O 4.420458 10.186501 8.681179 0.619478 -2.564188 -1.636993 1.000000 -21.566000
H 4.634290 10.309099 8.470414 -5.940184 3.946616 -5.166648 0.062500 10.783000
H 7.415370 7.157284 11.088925 7.314337 4.333801 -6.995673 0.062500 10.783000
O 7.112791 7.255315 11.106857 -1.386151 2.588333 3.717585 1.000000 -21.566000
H 7.064512 7.326630 11.416999 -1.125297 -3.063669 -2.428993 0.062500 10.783000
H 10.758124 11.156007 1.814978 -2.387615 8.087037 8.282023 0.062500 10.783000
O 10.495403 11.259722 1.965783 -2.153637 1.152972 0.937768 1.000000 -21.566000
H 10.550530 11.570452 2.011737 -2.463335 3.435534 -3.115046 0.062500 10.783000
H 11.760316 1.680310 0.216127 -14.063944 -1.459635 -11.479332 0.062500 10.783000
O 11.975432 1.690991 14.716766 -3.898651 -0.501530 -3.671490 1.000000 -21.566000
H 11.801163 1.804380 14.488825 6.269099 -9.463433 -10.946834 0.062500 10.783000
H 12.122590 13.671477 2.996135 4.929268 -11.039722 0.239387 0.062500 10.783000
O 12.062960 13.609451 3.308960 0.639295 2.515867 2.383363 1.000000 -21.566000
H 12.119451 13.300137 3.333976 -10.395945 1.077200 6.176813 0.062500 10.783000
H 9.855879 8.249212 5.139918 5.984419 -14.873980 0.289266 0.062500 10.783000
O 9.557999 8.296012 5.244340 -1.765896 1.571847 -0.188548 1.000000 -21.566000
H 9.457549 8.582153 5.143090 8.279043 -8.711926 3.920064 0.062500 10.783000
H 11.721347 10.520957 6.191743 2.671112 9.932581 -4.140737 0.062500 10.783000
O 11.782577 10.486512 6.512381 1.803213 0.536188 1.580857 1.000000 -21.566000
H 11.771494 10.778040 6.640301 12.361062 3.615595 1.955966 0.062500 10.783000
H 14.369645 12.183371 6.134181 -3.313311 -7.359731 10.549166 0.062500 10.783000
O 14.684701 12.202751 6.187233 -2.342813 -1.230913 -1.054567 1.000000 -21.566000
H 14.693563 12.245430 6.508891 -1.648760 -3.889420 -7.705253 0.062500 10.783000
H 12.592374 14.182913 2.600978 -6.075702 8.547716 -10.554876 0.062500 10.783000
O 12.488841 13.872549 2.605948 -3.546787 3.173264 6.098742 1.000000 -21.566000
H 12.572116 13.720739 2.338709 -4.064590 3.493258 3.831260 0.062500 10.783000
H 0.024319 12.856009 4.607934 -4.365878 -7.216308 9.045199 0.062500 10.783000
O 0.121524 12.578705 4.736257 0.232340 1.168598 0.287697 1.000000 -21.566000
H 0.102325 12.612514 5.053045 7.832014 4.498747 2.109325 0.062500 10.783000
H 13.765510 0.107276 6.954077 4.077705 -1.785536 -1.235469 0.062500 10.783000
O 13.441018 0.136527 6.925853 1.436084 -0.881955 0.973120 1.000000 -21.566000
H 13.419094 0.457997 6.936394 -13.297618 -1.475433 -10.494158 0.062500 10.783000
H 2.597427 12.948413 3.106569 2.568554 4.806465 -5.843627 0.062500 10.783000
O 2.787585 13.206040 3.160092 0.760324 -0.121452 -6.105481 1.000000 -21.566000
H 2.563638 13.434219 3.235144 2.201924 8.201108 -7.632294 0.062500 10.783000
H 1.570346 11.408335 8.418435 -2.910088 -4.488978 -0.955093 0.062500 10.783000
O 1.571466 11.125121 8.589911 0.817623 -2.659208 -0.431224 1.000000 -21.566000
H 1.874362 11.044550 8.636679 1.262088 -8.955205 3.553255 0.062500 10.783000
H 3.628660 6.641316 3.491350 7.884511 2.409764 -0.160902 0.062500 10.783000
O 3.516315 6.615973 3.799807 -0.774008 -0.811021 -1.497511 1.000000 -21.566000
H 3.386210 6.331299 3.834572 0.394003 -0.862223 -8.942483 0.062500 10.783000
H 2.310069 10.270577 8.405473 7.618216 -12.581340 -10.171517 0.062500 10.783000
O 2.159878 10.059857 8.222546 0.794832 1.659178 -0.403719 1.000000 -21.566000
H 2.302931 9.793963 8.323054 -4.144551 0.358393 10.546955 0.062500 10.783000
H 9.983882 0.312012 7.547272 -9.127762 -1.773579 13.854003 0.062500 10.783000
O 9.784230 0.182412 7.337539 -3.111280 -0.051131 1.292060 1.000000 -21.566000
H 9.714021 14.623167 7.472776 -4.979140 2.567588 3.411511 0.062500 10.783000
H 8.650775 9.666747 10.811774 12.109369 -13.723381 -2.503175 0.062500 10.783000
O 8.718426 9.890209 10.594356 -0.382283 0.436676 0.664469 1.000000 -21.566000
H 8.713008 10.160187 10.762416 11.924820 4.188758 3.134289 0.062500 10.783000
H 10.922506 1.798567 8.621434 1.684276 2.298795 6.084628 0.062500 10.783000
O 10.737266 2.048333 8.663536 -0.615682 0.734346 0.727848 1.000000 -21.566000
H 10.586620 2.057697 8.947785 -7.917702 6.672839 5.911459 0.062500 10.783000
H 10.334512 9.114612 14.703405 -2.576838 -6.406910 2.086873 0.062500 10.783000
O 10.338015 8.874321 14.498294 1.032800 -0.391711 -2.540564 1.000000 -21.566000
H 10.399974 8.972008 14.205345 -6.250384 3.339521 0.414280 0.062500 10.783000
H 9.610137 3.148493 7.811708 -2.094819 7.902055 -5.500752 0.062500 10.783000
O 9.579942 3.314168 8.080914 1.274915 0.299460 1.708219 1.000000 -21.566000
H 9.276923 3.316209 8.180725 -8.456913 -5.716616 -13.738446 0.062500 10.783000
H 10.927174 1.806111 4.184790 6.580443 1.420455 5.151311 0.062500 10.783000
O 11.106791 1.541894 4.170644 0.256258 1.736918 -1.281946 1.000000 -21.566000
H 11.327340 1.511535 4.401607 -6.872159 -0.237923 2.395060 0.062500 10.783000
H 14.133493 0.752433 4.476639 10.747033 -10.407061 -7.290111 0.062500 10.783000
O 14.129406 0.478034 4.629786 -0.248085 -0.483895 -0.491943 1.000000 -21.566000
H 14.148129 0.547882 4.937155 -0.127933 -2.394672 -10.224663 0.062500 10.783000
H 11.984676 0.074544 8.903695 -8.185257 18.894305 6.468635 0.062500 10.783000
O 12.188685 0.326687 8.897106 -0.701430 -1.826451 3.154080 1.000000 -21.566000
H 12.096696 0.522356 8.664525 -9.864000 -3.953635 10.050978 0.062500 10.783000
H 12.364871 11.578676 9.922065 -4.156748 -2.396300 -8.219899 0.062500 10.783000
O 12.656970 11.717332 9.870199 1.998915 3.050352 -1.419884 1.000000 -21.566000
H 12.737372 11.608779 9.574856 7.642246 10.546806 0.573157 0.062500 10.783000
H 2.267251 12.350783 7.578831 -14.542492 -4.478506 -2.860900 0.062500 10.783000
O 2.430944 12.618263 7.689982 -1.703859 -1.788495 0.718279 1.000000 -21.566000
H 2.370042 12.814821 7.453411 -3.395211 -9.371031 14.927310 0.062500 10.783000
H 6.062016 2.154648 14.554591 11.427736 0.098480 -1.293449 0.062500 10.783000
O 5.991994 1.899194 14.738956 1.428862 -2.660124 1.914267 1.000000 -21.566000
H 5.954395 1.672151 14.510887 5.798404 2.775585 6.122542 0.062500 10.783000
H 2.763895 12.005917 5.662455 -4.814757 4.963202 0.207590 0.062500 10.783000
O 2.647370 12.298764 5.679473 -2.051382 2.949809 -2.641366 1.000000 -21.566000
H 2.321778 12.312958 5.645942 -3.013769 1.109056 4.489148 0.062500 10.783000
H 12.419835 8.547780 8.883085 -5.919122 9.158327 -9.734410 0.062500 10.783000
O 12.301089 8.728798 9.099342 -0.634560 2.102764 -1.057009 1.000000 -21.566000
H 12.034950 8.848276 8.949580 6.944656 -5.008983 6.959847 0.062500 10.783000
H 6.147415 3.226223 7.379614 0.893905 9.428616 -5.386766 0.062500 10.783000
O 5.965701 3.371398 7.597299 0.752187 2.508133 -2.974079 1.000000 -21.566000
H 5.685692 3.241579 7.548459 2.030445 -3.082076 -5.293365 0.062500 10.783000
H 8.565025 13.745977 9.727294 -1.320929 1.104976 -9.548242 0.062500 10.783000
O 8.828796 13.812464 9.884781 -0.384691 -2.412790 -1.907406 1.000000 -21.566000
H 9.096131 13.731704 9.706257 2.629662 -5.021412 5.508813 0.062500 10.783000
H 8.663479 0.955534 9.417996 4.942358 -12.585407 5.821445 0.062500 10.783000
O 8.820779 0.814405 9.656490 1.572995 1.433491 0.337518 1.000000 -21.566000
H 8.608336 0.704840 9.878351 -4.613154 0.613743 -9.966549 0.062500 10.783000
H 9.892200 2.566825 9.643676 -4.212887 6.641403 -10.011184 0.062500 10.783000
O 9.681172 2.426544 9.829007 1.215995 -3.774559 -1.596121 1.000000 -21.566000
H 9.556942 2.611946 10.054986 -8.483606 12.697039 -11.788569 0.062500 10.783000
H 11.369578 2.341349 6.339165 9.505676 -10.125292 -5.048934 0.062500 10.783000
O 11.652339 2.173224 6.324463 1.950637 0.918786 -1.892679 1.000000 -21.566000
H 11.598418 1.902628 6.491442 -2.575438 0.013789 12.597278 0.062500 10.783000
H 10.290464 1.501986 7.257202 -7.521144 -0.162094 2.288369 0.062500 10.783000
O 10.589763 1.402756 7.201216 -0.997863 0.859892 0.748102 1.000000 -21.566000
H 10.769826 1.504234 7.458970 6.866509 0.720063 12.520339 0.062500 10.783000
H 9.785444 10.528455 7.632790 2.106813 7.327502 -9.330108 0.062500 10.783000
O 9.870107 10.681892 7.361994 -3.852459 0.694096 0.244022 1.000000 -21.566000
H 10.060135 10.944845 7.387820 -6.901799 -6.513453 -3.848634 0.062500 10.783000
H 11.817159 0.245520 4.795245 -1.405053 -5.137109 19.685026 0.062500 10.783000
O 11.543939 0.088746 4.743192 0.392557 -0.782800 -2.306575 1.000000 -21.566000
H 11.275010 0.269762 4.743467 3.358430 2.308817 -1.486750 0.062500 10.783000
H 10.234373 1.243442 3.996693 13.107162 -1.113675 0.006930 0.062500 10.783000
O 10.454810 1.068498 3.842379 1.065116 -0.778596 -0.590443 1.000000 -21.566000
H 10.732691 1.170954 3.948028 -2.508562 -11.428084 2.156986 0.062500 10.783000
H 2.762753 1.057787 7.851935 14.297793 -1.154138 -1.978778 0.062500 10.783000
O 2.647189 0.744193 7.842297 -0.954081 0.278481 -2.761042 1.000000 -21.566000
H 2.343826 0.800460 7.803593 5.668546 -0.974745 5.504668 0.062500 10.783000
H 13.609844 2.414203 6.234457 12.352360 -0.362622 1.376560 0.062500 10.783000
O 13.734335 2.194457 6.035948 -2.235755 0.323086 2.465192 1.000000 -21.566000
H 14.036463 2.132840 6.133739 -0.938810 6.461664 3.737544 0.062500 10.783000
H 6.339522 8.505173 2.530006 -4.494946 3.519711 12.248827 0.062500 10.783000
O 6.060620 8.445521 2.675141 -1.266950 -2.563383 -5.132903 1.000000 -21.566000
H 6.121417 8.466303 2.998424 0.128230 -1.042968 -5.220944 0.062500 10.783000
H 6.922215 12.151577 5.456406 19.263637 -3.563675 1.448396 0.062500 10.783000
O 6.878812 12.020994 5.163286 3.718780 -2.460672 1.067944 1.000000 -21.566000
H 7.184152 12.015529 5.031123 10.187521 3.086377 -8.398022 0.062500 10.783000
H 4.101384 0.320608 8.384691 2.957645 -4.509637 -2.909366 0.062500 10.783000
O 4.431163 0.286599 8.397718 3.064509 0.928574 1.922815 1.000000 -21.566000
H 4.543615 0.002861 8.337299 -1.758964 5.017671 1.387777 0.062500 10.783000
H 12.672391 8.645188 13.596899 5.906175 -10.645552 -0.103908 0.062500 10.783000
O 12.667357 8.319097 13.559793 3.268627 2.890572 3.916798 1.000000 -21.566000
H 12.905474 8.243131 13.345418 -2.799754 3.314463 4.720032 0.062500 10.783000
H 2.655211 13.996381 6.481359 3.946797 6.658157 2.970270 0.062500 10.783000
O 2.936348 13.855893 6.488033 -0.797753 2.162487 1.129282 1.000000 -21.566000
H 3.128780 14.040151 6.681476 16.456922 6.504871 -12.258406 0.062500 10.783000
H 14.095103 3.143244 1.041459 3.791350 -9.006996 -1.050219 0.062500 10.783000
O 13.901047 2.930785 1.168858 3.941841 0.583350 -0.427900 1.000000 -21.566000
H 13.631968 3.088762 1.249951 -6.275571 -7.483799 -1.133287 0.062500 10.783000
H 11.057041 12.022058 8.211256 -8.969988 -9.404458 0.503834 0.062500 10.783000
O 11.273574 11.878568 8.395074 -1.356132 0.765553 -1.098549 1.000000 -21.566000
H 11.558142 11.911393 8.262100 -4.931565 11.847426 3.541973 0.062500 10.783000
H 11.488877 14.436527 10.798004 0.441743 -3.545587 -13.255613 0.062500 10.783000
O 11.196358 14.576477 10.708109 -0.251131 -3.823232 2.120741 1.000000 -21.566000
H 11.228973 14.655781 10.402700 -2.608031 -13.684894 4.975724 0.062500 10.783000
H 10.033798 2.378053 11.268007 -1.727623 -2.740474 6.082074 0.062500 10.783000
O 10.167500 2.436173 10.984509 2.146823 1.454120 3.065175 1.000000 -21.566000
H 9.931998 2.533081 10.803307 13.676225 2.903593 13.716485 0.062500 10.783000
H 1.661527 3.729856 10.784584 -13.080224 1.166992 5.852945 0.062500 10.783000
O 1.747158 3.436911 10.912028 4.242353 0.729623 -4.627331 1.000000 -21.566000
H 1.920685 3.431191 11.174089 -9.104233 -14.586244 -5.749639 0.062500 10.783000
H 8.238030 0.583516 5.028932 -20.705007 1.659893 -4.660892 0.062500 10.783000
O 8.031737 0.427895 5.218357 -1.435989 3.076425 -1.386661 1.000000 -21.566000
H 8.141785 0.114104 5.250908 12.653208 -1.769687 -0.494542 0.062500 10.783000
H 11.684715 0.171165 5.837664 -0.454219 -6.603130 0.427338 0.062500 10.783000
O 11.948105 0.109906 6.017140 0.760899 -2.423046 0.427630 1.000000 -21.566000
H 12.201323 0.020114 5.831573 -4.722356 4.210694 -8.276905 0.062500 10.783000
H 1.401416 0.168348 6.532833 1.935680 -0.515830 -12.511769 0.062500 10.783000
O 1.306708 0.402084 6.326121 0.388792 0.531964 -1.262999 1.000000 -21.566000
H 1.139748 0.640498 6.471856 4.469186 16.801694 9.656826 0.062500 10.783000
H 3.825094 3.512208 5.760678 -1.656004 4.296264 16.441374 0.062500 10.783000
O 3.679359 3.730624 5.563593 -0.206418 -1.233702 -3.019565 1.000000 -21.566000
H 3.885100 3.761946 5.331607 -6.931965 -6.267820 2.510119 0.062500 10.783000
H 5.969812 2.288525 10.030366 -5.707478 -11.548247 4.183352 0.062500 10.783000
O 5.937557 2.459131 9.751488 1.243208 1.458178 3.054674 1.000000 -21.566000
H 5.662834 2.373563 9.613197 2.963424 -2.247073 -0.028080 0.062500 10.783000
H 0.114806 9.051401 8.401002 13.649552 13.531230 1.036534 0.062500 10.783000
O 0.360236 8.857891 8.472987 1.307490 1.075186 0.295153 1.000000 -21.566000
H 0.596963 8.963336 8.277534 -0.126616 7.986024 8.296533 0.062500 10.783000
H 13.531048 9.528902 8.172946 3.505400 -10.986921 10.528835 0.062500 10.783000
O 13.577527 9.391545 7.881295 -2.809662 -2.354166 2.682223 1.000000 -21.566000
H 13.286201 9.344564 7.786777 4.012900 -14.091156 -15.040786 0.062500 10.783000
H 4.507425 1.456186 9.783530 0.848850 7.500440 -9.499898 0.062500 10.783000
O 4.360214 1.505082 10.061402 0.018048 1.102158 0.741711 1.000000 -21.566000
H 4.103981 1.698421 10.025623 -6.946694 3.089450 7.646604 0.062500 10.783000
H 10.521718 2.770442 0.393911 5.394574 -4.076260 -9.258558 0.062500 10.783000
O 10.452553 3.077735 0.415327 0.227529 -0.049659 0.275859 1.000000 -21.566000
H 10.412820 3.121854 0.740441 -2.398773 -4.536480 5.372234 0.062500 10.783000
H 7.707896 8.767618 2.562241 11.638326 -7.500158 -0.206588 0.062500 10.783000
O 7.750204 8.872244 2.863894 2.189434 -2.139629 -0.612559 1.000000 -21.566000
H 7.893670 8.645064 3.029453 7.329860 8.652622 -5.683101 0.062500 10.783000
H 7.916288 10.395297 12.097368 12.266824 13.865309 16.661029 0.062500 10.783000
O 7.865115 10.620735 11.879120 0.672335 -1.735094 0.254778 1.000000 -21.566000
H 7.710508 10.517834 11.613311 3.364650 -9.030144 -5.986532 0.062500 10.783000
H 6.536251 13.969514 1.994966 -13.895520 -6.985108 6.413269 0.062500 10.783000
O 6.545889 13.839613 1.703967 -0.252936 -0.691991 -0.414391 1.000000 -21.566000
H 6.231421 13.823743 1.656542 -3.008739 -2.469937 -2.919994 0.062500 10.783000
H 3.952939 14.193986 6.888045 8.235643 5.028141 4.304367 0.062500 10.783000
O 3.630594 14.243034 6.894835 2.078362 -1.344083 3.951442 1.000000 -21.566000
H 3.594524 14.565812 6.892285 10.855681 3.149860 15.343619 0.062500 10.783000
H 10.208658 5.045746 8.411101 -5.749199 8.466036 -2.039103 0.062500 10.783000
O 9.894746 4.999520 8.399590 1.224495 -1.145117 -0.609255 1.000000 -21.566000
H 9.855372 4.675367 8.391051 -4.273923 7.108374 -5.971477 0.062500 10.783000
H 8.680558 13.700570 7.859433 22.529070 16.500815 2.161803 0.062500 10.783000
O 8.614261 14.007682 7.869596 -0.350532 -1.016799 -0.336678 1.000000 -21.566000
H 8.477370 14.143119 7.613805 0.160523 -4.756127 16.972541 0.062500 10.783000
H 11.883389 3.711933 12.669936 -7.073198 -10.121194 -2.971032 0.062500 10.783000
O 12.147852 3.514860 12.698761 0.544186 2.073762 0.367697 1.000000 -21.566000
H 12.395644 3.686876 12.579759 -4.728742 -2.533012 -19.084809 0.062500 10.783000
H 14.067668 2.590579 11.707861 -2.218871 6.761963 1.121903 0.062500 10.783000
O 13.975127 2.579174 12.006444 2.428644 -0.437747 0.952393 1.000000 -21.566000
H 13.980148 2.883277 12.118122 3.014167 1.523696 13.407469 0.062500 10.783000
H 13.503857 0.861732 7.758871 5.949183 -9.120231 12.927120 0.062500 10.783000
O 13.744516 1.034416 7.633565 -0.030814 -0.859705 4.694497 1.000000 -21.566000
H 13.702060 1.335124 7.738889 15.340535 10.017594 -0.723214 0.062500 10.783000
H 0.439161 2.780701 9.353440 -6.164399 7.480127 10.912226 0.062500 10.783000
O 0.542958 2.776740 9.646288 0.455686 1.013853 2.444119 1.000000 -21.566000
H 0.386524 2.578631 9.833315 -2.206936 7.693229 -1.056390 0.062500 10.783000
H 5.487446 0.906555 3.879329 8.828399 4.308597 -4.496380 0.062500 10.783000
O 5.478240 0.585814 3.863558 0.164911 -1.967850 -1.709764 1.000000 -21.566000
H 5.394467 0.520011 4.159635 9.595755 1.153085 -6.908882 0.062500 10.783000
H 2.170216 4.083954 8.683081 8.182763 -2.301660 10.343186 0.062500 10.783000
O 2.490273 4.094451 8.746531 -0.931221 -0.038987 0.939239 1.000000 -21.566000
H 2.654050 3.863335 8.606459 -9.401054 -0.504282 -8.752094 0.062500 10.783000
H 2.792995 10.330804 13.845424 0.678923 -3.490651 5.656156 0.062500 10.783000
O 2.533502 10.464726 14.001859 -0.486707 -2.579870 -0.172158 1.000000 -21.566000
H 2.315061 10.473555 13.775783 8.695550 -7.724546 -13.081854 0.062500 10.783000
H 13.279709 4.243947 1.265246 6.867665 -5.728140 -0.485637 0.062500 10.783000
O 13.171133 4.389146 0.999627 0.271272 -1.533447 2.417518 1.000000 -21.566000
H 12.878172 4.486371 1.073084 3.682111 -2.884958 4.729108 0.062500 10.783000
H 3.630333 3.400186 8.258232 -1.917526 -9.934392 -5.988718 0.062500 10.783000
O 3.456948 3.469681 8.515128 -0.458846 0.129441 -1.913098 1.000000 -21.566000
H 3.645193 3.650250 8.707564 -4.773714 -1.539394 2.186934 0.062500 10.783000
H 6.463365 3.382871 11.075283 -8.350057 1.807003 -2.519663 0.062500 10.783000
O 6.250625 3.523381 11.255589 0.132525 0.348299 1.280539 1.000000 -21.566000
H 5.991992 3.659307 11.129009 1.597043 12.950832 -6.099792 0.062500 10.783000
H 6.745368 3.549099 10.402870 6.849363 -11.244877 2.485113 0.062500 10.783000
O 6.678525 3.713769 10.139628 -1.332190 -0.513950 2.092226 1.000000 -21.566000
H 6.408184 3.577292 10.030841 -16.795453 3.499604 -5.197711 0.062500 10.783000
H 6.996139 9.897087 2.247341 8.209434 -4.603523 -3.484217 0.062500 10.783000
O 7.264817 10.074609 2.238984 1.726304 4.785898 0.237512 1.000000 -21.566000
H 7.200224 10.351386 2.402444 -4.701620 -2.448534 -1.605843 0.062500 10.783000
H 8.351815 3.427069 8.958345 4.033359 -5.345190 11.332809 0.062500 10.783000
O 8.546890 3.498236 9.204802 -1.335320 1.281550 3.337362 1.000000 -21.566000
H 8.839957 3.558692 9.097453 -1.145675 -13.526854 10.600510 0.062500 10.783000
H 6.451190 6.996348 4.289832 -9.611435 12.118705 -1.119619 0.062500 10.783000
O 6.455415 6.977048 4.610487 -0.324986 -3.313703 1.161953 1.000000 -21.566000
H 6.438032 6.675448 4.704488 15.874550 -3.654685 0.180177 0.062500 10.783000
H 9.574437 1.641308 8.967415 -3.610241 -14.768485 -8.212874 0.062500 10.783000
O 9.311237 1.696704 8.776469 -0.746318 3.808979 -0.101390 1.000000 -21.566000
H 9.289073 1.447212 8.559770 -3.326934 5.224297 -5.443100 0.062500 10.783000
H 8.352230 2.445257 11.159857 1.353706 -2.586509 0.724111 0.062500 10.783000
O 8.605112 2.550589 10.982370 2.694502 -0.967324 -1.872069 1.000000 -21.566000
H 8.530313 2.754979 10.728736 1.472436 0.952427 -9.791702 0.062500 10.783000
H 1.864678 1.940679 7.903311 5.627679 -11.041256 -18.162170 0.062500 10.783000
O 2.052276 1.856977 7.672920 -1.959900 -1.505036 3.467653 1.000000 -21.566000
H 1.891146 1.746282 7.419757 7.577001 6.373106 -10.014621 0.062500 10.783000
H 1.391644 2.632949 6.814816 8.110358 -0.808249 18.456141 0.062500 10.783000
O 1.162496 2.464896 6.664078 0.546775 -0.901960 1.177946 1.000000 -21.566000
H 0.975386 2.632119 6.479159 4.623439 -2.754222 1.387273 0.062500 10.783000
H 4.325735 0.800923 6.050794 -1.175571 -0.955698 -12.043059 0.062500 10.783000
O 4.025229 0.816956 6.165820 -2.896546 2.017464 -4.497666 1.000000 -21.566000
H 3.909984 1.016172 5.943164 -1.955148 4.318173 2.836604 0.062500 10.783000
H 3.445901 12.796359 4.191315 4.772047 -5.551264 4.434247 0.062500 10.783000
O 3.417673 12.785520 4.507718 -0.442945 1.064262 -2.183243 1.000000 -21.566000
H 3.274812 12.485836 4.532348 6.379364 0.482910 4.619343 0.062500 10.783000
H 2.367127 3.248802 2.458393 -5.891721 -1.467571 5.177569 0.062500 10.783000
O 2.226213 3.527101 2.505749 -1.481481 -1.311165 -0.508764 1.000000 -21.566000
H 2.253432 3.674830 2.222456 -5.167349 9.899133 5.897442 0.062500 10.783000
H 5.764994 1.024685 8.147744 0.413349 5.219762 -13.138601 0.062500 10.783000
O 5.624691 0.944860 8.430773 3.252170 0.007104 1.782497 1.000000 -21.566000
H 5.315795 0.993147 8.382211 -0.502781 18.777555 -6.876532 0.062500 10.783000
H 4.615417 14.289592 9.602058 -7.397295 -13.171228 -7.342788 0.062500 10.783000
O 4.560535 13.990577 9.715054 1.803771 -0.734327 -0.248345 1.000000 -21.566000
H 4.404653 13.803860 9.506935 -10.797754 -4.054993 9.788726 0.062500 10.783000
H 4.208441 1.538123 11.664403 -4.812720 -6.195472 -14.765776 0.062500 10.783000
O 4.447218 1.325634 11.686641 -0.526986 -1.102348 3.768479 1.000000 -21.566000
H 4.329970 1.022225 11.693910 -20.943331 -1.778508 -0.631351 0.062500 10.783000
H 4.505117 5.842694 12.977474 -6.685511 2.213081 0.012978 0.062500 10.783000
O 4.604753 5.958942 13.248611 -2.583155 -2.191667 -1.991008 1.000000 -21.566000
H 4.732576 5.730649 13.423468 -10.756727 1.780366 8.784780 0.062500 10.783000
H 6.494889 4.846465 10.566130 -3.700076 7.033973 -3.853587 0.062500 10.783000
O 6.609928 5.026792 10.805581 -0.410940 0.538495 1.124410 1.000000 -21.566000
H 6.689461 5.278944 10.623577 11.812866 -8.496613 -7.583862 0.062500 10.783000
H 12.155525 2.276916 14.218534 -6.579827 -10.228889 4.063735 0.062500 10.783000
O 11.896152 2.489287 14.214983 0.966528 0.041203 -3.600460 1.000000 -21.566000
H 11.894113 2.636411 13.946397 -1.874248 2.086154 5.308349 0.062500 10.783000
H 8.039453 3.215369 6.578816 -3.072826 13.465671 7.970477 0.062500 10.783000
O 8.322517 3.350903 6.648568 2.490061 -2.006374 -1.039512 1.000000 -21.566000
H 8.524429 3.132502 6.757903 10.398605 0.957282 -12.466756 0.062500 10.783000
H 7.200452 13.960693 9.535131 5.472507 -2.722387 -11.480586 0.062500 10.783000
O 6.913018 13.883430 9.405284 -1.020349 0.924106 -3.270427 1.000000 -21.566000
H 6.712807 14.135984 9.403124 3.945188 3.797997 -10.867013 0.062500 10.783000
H 9.895110 4.900347 9.336810 -4.503506 3.688998 7.559083 0.062500 10.783000
O 10.199397 4.902751 9.419386 1.586056 -0.236999 -0.431370 1.000000 -21.566000
H 10.299019 4.643644 9.265038 1.260197 -7.488828 5.068962 0.062500 10.783000
H 10.894237 5.075991 8.690643 8.161224 -7.082975 1.782700 0.062500 10.783000
O 10.685512 5.121674 8.446827 -0.128887 5.109559 3.490857 1.000000 -21.566000
H 10.666152 5.429045 8.325962 -0.914797 13.007817 -1.774442 0.062500 10.783000
H 12.306764 8.062767 7.112435 2.991722 -2.708821 16.553700 0.062500 10.783000
O 12.521204 8.312796 7.084598 -1.853399 -0.361877 0.783539 1.000000 -21.566000
H 12.758507 8.186675 6.919434 -3.520165 -2.036861 -13.951600 0.062500 10.783000
H 0.606182 4.244620 10.622974 -13.980568 8.209470 4.295100 0.062500 10.783000
O 0.367563 4.027566 10.568247 1.042811 -1.319660 -2.651067 1.000000 -21.566000
H 0.169765 4.184353 10.769038 1.653778 -6.636601 17.140361 0.062500 10.783000
H 12.104677 5.811889 11.267689 4.661539 -7.888213 4.285226 0.062500 10.783000
O 12.405241 5.824607 11.140682 5.720986 -0.993643 -3.017447 1.000000 -21.566000
H 12.619724 5.841274 11.383127 8.664545 -13.285552 -9.783840 0.062500 10.783000
H 1.479530 6.346049 10.777811 5.543146 2.731848 -5.636940 0.062500 10.783000
O 1.402591 6.529760 11.034510 -0.940424 0.947907 -2.210875 1.000000 -21.566000
H 1.194467 6.362804 11.224224 -6.667432 3.671753 12.326717 0.062500 10.783000
H 6.476703 3.587224 2.374644 -13.186412 3.215982 -3.386719 0.062500 10.783000
O 6.287392 3.327341 2.403668 3.120161 0.300677 -0.086869 1.000000 -21.566000
H 6.324616 3.160349 2.137185 4.595964 8.299949 -12.284559 0.062500 10.783000
H 4.496662 2.170682 10.145464 -11.169367 -14.731428 -14.898458 0.062500 10.783000
O 4.401077 2.374310 9.929804 0.577752 3.331652 3.682663 1.000000 -21.566000
H 4.067108 2.420611 9.939601 -6.812061 2.952717 -10.471472 0.062500 10.783000
H 3.329860 2.248035 6.411627 2.878464 6.154160 0.483515 0.062500 10.783000
O 3.480927 2.286919 6.693125 -2.157089 0.528263 0.023049 1.000000 -21.566000
H 3.440139 2.597562 6.744072 -4.217625 1.023925 12.745166 0.062500 10.783000
H 2.929968 6.352744 5.518372 -12.706402 -6.626080 -1.035458 0.062500 10.783000
O 2.619815 6.433218 5.507889 -0.533126 0.671854 -0.312098 1.000000 -21.566000
H 2.553590 6.404650 5.185961 8.877531 -11.082716 -14.342336 0.062500 10.783000
H 5.163520 3.314429 5.813856 -13.200169 1.149421 -9.680435 0.062500 10.783000
O 4.899041 3.455300 5.908995 2.432267 -1.799689 0.663440 1.000000 -21.566000
H 4.959598 3.624291 6.170647 -8.641705 -10.610023 -6.411039 0.062500 10.783000
H 5.420488 2.820900 7.820180 -7.921991 -6.281437 7.807358 0.062500 10.783000
O 5.525228 2.526702 7.871721 -0.198406 -3.949467 1.466684 1.000000 -21.566000
H 5.595513 2.454976 8.187935 -3.395252 16.110000 6.747837 0.062500 10.783000
H 10.255106 11.970496 14.364218 -2.503766 6.061099 12.113936 0.062500 10.783000
O 10.311562 11.819443 14.637828 1.255987 -0.647960 0.729056 1.000000 -21.566000
H 10.619271 11.879266 14.685276 6.187546 -6.296348 -12.525458 0.062500 10.783000
H 7.255511 1.403539 4.709108 5.143119 -7.513462 -7.637109 0.062500 10.783000
O 7.522737 1.254214 4.774207 -0.676577 2.750939 1.678072 1.000000 -21.566000
H 7.538811 0.977936 4.633581 -8.889646 6.467335 2.461005 0.062500 10.783000
H 8.506304 5.990040 8.178992 1.420446 1.040135 -4.054234 0.062500 10.783000
O 8.643276 5.772742 7.984211 -1.152581 -0.541019 -0.446839 1.000000 -21.566000
H 8.962786 5.760474 8.055524 -3.949964 -2.461878 0.986400 0.062500 10.783000
H 9.148316 4.795382 9.146733 -5.516225 -6.106420 9.503359 0.062500 10.783000
O 9.383485 5.007817 9.201397 0.101438 -1.174199 -2.426553 1.000000 -21.566000
H 9.447309 5.151304 8.922286 5.707762 0.587369 -1.926570 0.062500 10.783000
H 14.031911 6.011115 8.615140 17.029815 13.149795 -1.087697 0.062500 10.783000
O 13.965142 5.785769 8.383021 -3.815702 -2.551513 -1.117636 1.000000 -21.566000
H 13.662929 5.849798 8.323729 0.254669 0.179571 -5.876005 0.062500 10.783000
H 11.001638 5.966786 10.485275 -10.708729 7.297037 6.973672 0.062500 10.783000
O 10.873455 6.089156 10.737756 -2.593874 -0.095035 -3.515595 1.000000 -21.566000
H 10.753725 6.379094 10.661025 -2.637829 -5.940204 -0.437315 0.062500 10.783000
H 13.972849 4.671555 9.816268 12.244215 -15.384139 7.613679 0.062500 10.783000
O 13.924705 4.680333 9.501713 0.860671 -3.080287 3.070606 1.000000 -21.566000
H 13.631125 4.798731 9.451764 3.503913 -1.262793 -2.500176 0.062500 10.783000
H 13.799181 5.549126 7.761872 0.028008 3.109334 9.534151 0.062500 10.783000
O 13.541241 5.438173 7.597161 -2.223130 0.008914 1.009416 1.000000 -21.566000
H 13.586678 5.550576 7.298646 -0.850611 -1.963210 3.650194 0.062500 10.783000
H 0.397275 1.617388 9.043733 -7.998262 -3.925648 -14.492265 0.062500 10.783000
O 0.688577 1.542639 8.933887 -1.058502 -2.893580 -1.184133 1.000000 -21.566000
H 0.905684 1.734651 9.068066 5.466050 -9.552363 -2.193525 0.062500 10.783000
H 1.705594 6.619187 7.620537 -0.594244 1.698686 4.835739 0.062500 10.783000
O 1.512711 6.545035 7.385119 -2.507176 2.068249 -0.003521 1.000000 -21.566000
H 1.252590 6.737430 7.392694 -2.752615 7.242294 0.963164 0.062500 10.783000
H 1.521221 6.025738 13.265406 16.129876 -7.590176 -0.203479 0.062500 10.783000
O 1.334961 5.964570 13.508718 2.535051 5.157439 1.764231 1.000000 -21.566000
H 1.488692 6.080455 13.772520 2.516986 7.111814 14.023938 0.062500 10.783000
H 2.408858 5.825931 8.458275 -0.922487 11.922087 -2.657660 0.062500 10.783000
O 2.112202 5.854296 8.560978 -1.994400 2.488956 -4.565512 1.000000 -21.566000
H 2.074563 6.126877 8.722597 1.748234 -3.515374 -1.437052 0.062500 10.783000
H 3.327054 4.656210 9.256249 5.181797 5.656060 14.153893 0.062500 10.783000
O 3.510800 4.918114 9.234325 -1.745305 2.990681 -0.608677 1.000000 -21.566000
H 3.261942 5.107884 9.325511 1.531882 -1.259027 8.061861 0.062500 10.783000
H 13.587579 2.505750 7.328999 1.690024 -0.961083 11.466227 0.062500 10.783000
O 13.332817 2.668230 7.441966 -0.021236 -5.114685 0.022104 1.000000 -21.566000
H 13.461597 2.902874 7.632059 -2.607175 6.913602 0.019576 0.062500 10.783000
H 6.067150 0.216140 14.521027 -2.719899 -7.730942 -8.256800 0.062500 10.783000
O 5.903389 14.698503 14.413885 -1.927458 1.630937 0.426913 1.000000 -21.566000
H 5.670780 0.062357 14.219590 9.581350 -7.845385 -0.206550 0.062500 10.783000
H 4.786571 0.135648 9.831964 -10.006275 12.544677 2.583743 0.062500 10.783000
O 4.574930 0.121003 9.588153 4.331391 -4.537971 1.721194 1.000000 -21.566000
H 4.585117 0.412066 9.428314 -3.213327 -4.957073 9.785900 0.062500 10.783000
H 12.601846 7.018495 5.138039 34.770986 -7.739999 -8.576801 0.062500 10.783000
O 12.341918 7.131202 4.973064 -1.584943 -3.639983 1.186837 1.000000 -21.566000
H 12.139279 7.342718 5.107953 10.633016 0.571546 -21.080245 0.062500 10.783000
H 7.991231 2.734069 7.169257 -6.183982 0.495141 9.270089 0.062500 10.783000
O 7.976878 2.819538 7.475076 1.661743 -1.215076 -3.995082 1.000000 -21.566000
H 7.668336 2.901193 7.483482 -4.199775 -0.108157 11.436855 0.062500 10.783000
H 8.064583 5.237989 8.404056 -7.827255 1.680291 -0.159471 0.062500 10.783000
O 7.854568 5.353987 8.584163 0.120941 -0.656833 -1.982384 1.000000 -21.566000
H 7.602213 5.438031 8.398900 -0.962442 -1.040297 -2.034486 0.062500 10.783000
H 10.238713 6.987665 9.034078 -1.446230 2.442300 -10.300611 0.062500 10.783000
O 10.405706 6.729413 9.082487 0.959417 1.867153 -2.164789 1.000000 -21.566000
H 10.240699 6.521287 8.896345 -3.728076 1.288988 3.429137 0.062500 10.783000
H 11.474851 7.177216 7.977041 5.922194 4.104928 7.271430 0.062500 10.783000
O 11.754956 7.258560 8.130929 -0.522459 2.938683 -1.647569 1.000000 -21.566000
H 11.941937 7.010626 8.135497 -1.556957 1.960033 2.955419 0.062500 10.783000
H 11.758072 7.806536 7.180108 3.212985 6.944808 -4.422278 0.062500 10.783000
O 11.957218 7.787646 7.437562 0.857355 -0.283248 1.005499 1.000000 -21.566000
H 11.802431 7.632738 7.667348 -6.599270 -4.355907 -10.644088 0.062500 10.783000
H 4.601608 0.619582 8.795288 2.343520 13.100086 12.536402 0.062500 10.783000
O 4.587267 0.827215 9.031092 4.320126 -4.122643 4.041369 1.000000 -21.566000
H 4.286244 0.965957 9.016723 -3.521528 7.906884 1.735456 0.062500 10.783000
H 1.068689 6.184685 9.146967 8.105494 0.946922 -13.701288 0.062500 10.783000
O 1.118320 6.048037 9.446165 3.896737 -1.914666 1.479468 1.000000 -21.566000
H 1.066650 6.299375 9.632770 -10.376257 1.198174 0.196003 0.062500 10.783000
H 3.445743 1.366359 11.139271 -5.767429 7.634865 5.550402 0.062500 10.783000
O 3.382377 1.662974 11.029357 -0.549713 -0.474335 -0.739011 1.000000 -21.566000
H 3.066348 1.726984 11.106839 -4.820327 -1.762275 -3.770464 0.062500 10.783000
H 4.543476 3.195993 10.998699 0.960606 4.481923 6.792800 0.062500 10.783000
O 4.461401 2.954891 10.818646 -0.261700 0.510566 1.079922 1.000000 -21.566000
H 4.618666 2.710147 10.958524 -3.029480 3.736232 -1.842515 0.062500 10.783000
H 3.418054 3.747003 12.200629 0.607031 1.173031 7.962177 0.062500 10.783000
O 3.723068 3.670007 12.189881 1.858834 -0.517998 -2.139401 1.000000 -21.566000
H 3.690786 3.444027 11.961725 4.731833 -1.673109 -1.766766 0.062500 10.783000
H 3.559068 7.001111 10.104166 -7.225764 1.525191 4.376537 0.062500 10.783000
O 3.486004 6.882274 10.406164 -0.497840 1.701721 1.490354 1.000000 -21.566000
H 3.762613 6.787278 10.513077 4.220470 4.962059 -2.325325 0.062500 10.783000
H 5.836300 2.916890 14.526240 8.476969 -19.724059 18.687580 0.062500 10.783000
O 6.127312 2.801267 14.577006 1.453962 -2.494935 -0.181743 1.000000 -21.566000
H 6.160484 2.807026 0.148501 -7.113525 0.836235 4.078251 0.062500 10.783000
H 2.353384 8.474764 9.328526 -21.315326 5.580547 6.315090 0.062500 10.783000
O 2.534037 8.235210 9.456832 -0.545199 0.160855 1.801285 1.000000 -21.566000
H 2.421394 8.226819 9.755349 10.230019 2.664733 -0.551715 0.062500 10.783000
H 6.635059 4.074991 6.686951 14.230712 3.154180 -2.716921 0.062500 10.783000
O 6.806123 4.284774 6.878000 0.980573 -1.426478 1.921321 1.000000 -21.566000
H 6.644072 4.360705 7.158296 1.484904 -1.612063 3.632601 0.062500 10.783000
H 3.681217 6.589603 7.762158 11.093449 -8.714517 -7.807200 0.062500 10.783000
O 3.910472 6.656392 7.556506 1.568659 -2.352718 -1.126443 1.000000 -21.566000
H 4.181876 6.507510 7.634892 4.754408 8.382686 -6.259734 0.062500 10.783000
H 5.901256 0.696736 12.721761 3.488213 -10.379484 8.806083 0.062500 10.783000
O 6.076488 0.528720 12.506149 -0.162968 -2.838270 1.292777 1.000000 -21.566000
H 6.098303 0.243811 12.657173 11.201290 -6.495944 5.364100 0.062500 10.783000
H 13.857038 6.157497 12.824888 5.773026 3.490642 -15.744155 0.062500 10.783000
O 13.617717 5.998208 12.964738 0.786760 1.784437 4.328733 1.000000 -21.566000
H 13.722614 5.733976 13.103074 2.291531 -3.094730 -0.562433 0.062500 10.783000
H 11.911837 5.429843 8.507980 8.695893 -11.089562 10.786926 0.062500 10.783000
O 11.907243 5.667387 8.738989 0.719895 1.310683 5.405770 1.000000 -21.566000
H 12.185921 5.817852 8.701058 -11.171883 -7.107772 -4.420723 0.062500 10.783000
H 10.760847 7.696407 8.565203 -3.446718 2.396084 15.812359 0.062500 10.783000
O 11.006878 7.731942 8.788491 -0.464012 0.587729 0.500585 1.000000 -21.566000
H 10.889959 7.852828 9.064580 -1.736158 12.118801 1.926087 0.062500 10.783000
H 13.463248 9.540714 10.697263 -5.025151 -2.213908 -7.479006 0.062500 10.783000
O 13.461689 9.852217 10.651468 1.895414 0.088865 -0.648423 1.000000 -21.566000
H 13.274763 9.971865 10.891730 -7.664451 5.511974 6.580345 0.062500 10.783000
H 12.540781 9.018178 7.865495 6.526880 2.136609 -11.142709 0.062500 10.783000
O 12.772510 9.206557 8.017368 1.525413 -0.691600 2.966692 1.000000 -21.566000
H 12.639144 9.400208 8.244004 4.737542 0.030348 -0.855672 0.062500 10.783000
H 3.973027 4.824321 7.211979 2.840402 6.966802 -10.193759 0.062500 10.783000
O 3.777124 4.620405 7.053224 1.408750 2.029781 0.258570 1.000000 -21.566000
H 3.739582 4.739737 6.761855 15.940217 -0.760225 -2.518087 0.062500 10.783000
H 0.280766 8.828539 9.088940 -2.749038 9.861137 1.263509 0.062500 10.783000
O 0.278228 8.840925 9.414526 2.774283 -1.755002 1.312078 1.000000 -21.566000
H 0.072861 8.592429 9.471467 16.332490 -0.299953 9.425130 0.062500 10.783000
H 2.410299 5.181201 13.926396 -9.395080 14.095839 -10.136935 0.062500 10.783000
O 2.526237 5.427586 14.099845 -0.697735 0.192822 0.131777 1.000000 -21.566000
H 2.774159 5.366751 14.275665 -17.198908 -17.761200 1.389989 0.062500 10.783000
H 1.250078 10.077481 8.597788 -0.966844 -7.684944 -0.468068 0.062500 10.783000
O 1.511053 9.925219 8.716082 3.173834 -1.070079 2.434872 1.000000 -21.566000
H 1.744531 10.097668 8.575432 7.753944 -8.307454 2.060650 0.062500 10.783000
H 6.828616 8.387450 7.836109 5.413570 -10.142992 5.749165 0.062500 10.783000
O 6.927251 8.688265 7.932798 -3.389766 2.100106 1.036107 1.000000 -21.566000
H 7.249533 8.717226 7.988189 -8.227227 10.275738 12.183608 0.062500 10.783000
H 4.701541 7.626567 7.632517 4.071501 -4.519714 1.243922 0.062500 10.783000
O 4.492946 7.725045 7.396793 3.454403 0.428928 0.357210 1.000000 -21.566000
H 4.321918 7.946605 7.528961 -8.213378 4.390986 -11.898635 0.062500 10.783000
H 6.914187 5.213891 3.265534 -1.680607 0.001625 -2.655054 0.062500 10.783000
O 6.911915 5.486965 3.088283 0.525835 0.891610 0.391318 1.000000 -21.566000
H 6.913797 5.381980 2.783273 6.740337 -11.140427 -3.436655 0.062500 10.783000
H 10.215702 6.899809 11.925676 4.090483 -2.762414 2.760854 0.062500 10.783000
O 10.367957 6.845407 11.652821 -2.459168 -4.533409 -1.157923 1.000000 -21.566000
H 10.253534 7.054837 11.435267 -6.121140 -1.214343 3.239934 0.062500 10.783000
H 6.392456 8.891852 7.039781 -8.743732 -6.532954 -9.329606 0.062500 10.783000
O 6.125762 8.737778 7.015020 1.245962 -1.283175 1.380232 1.000000 -21.566000
H 6.188623 8.463406 6.844286 0.647740 -6.361302 5.271916 0.062500 10.783000
H 10.446784 4.086159 8.769065 -2.361990 -10.089594 -1.875763 0.062500 10.783000
O 10.366931 4.084039 9.068974 0.615994 -2.782319 0.734859 1.000000 -21.566000
H 10.576161 3.877053 9.215113 5.173183 1.336716 6.525745 0.062500 10.783000
H 7.268652 6.194850 10.008497 -2.227950 12.085708 0.375956 0.062500 10.783000
O 7.189791 6.308732 10.305231 0.869242 -0.251690 1.732469 1.000000 -21.566000
H 7.421547 6.221559 10.497849 0.894971 4.319267 3.420702 0.062500 10.783000
H 9.254512 4.923835 11.043793 -7.674552 -4.510558 -6.926359 0.062500 10.783000
O 9.122354 5.018483 10.781237 0.211221 -0.205646 0.567297 1.000000 -21.566000
H 8.818916 5.094126 10.845520 1.028333 -4.948019 -8.110345 0.062500 10.783000
H 12.289719 8.164292 11.604979 -5.661914 2.889866 3.276912 0.062500 10.783000
O 12.030919 8.011867 11.490339 -2.529470 -3.014582 0.588805 1.000000 -21.566000
H 11.938140 7.813482 11.729341 3.050697 12.674799 6.032463 0.062500 10.783000
H 12.523021 6.793746 11.161181 -4.449702 0.354728 -3.140567 0.062500 10.783000
O 12.681232 6.979317 10.951014 0.328302 -3.891453 -2.217604 1.000000 -21.566000
H 12.918242 6.794610 10.808066 -7.094040 -2.694089 -9.891475 0.062500 10.783000
H 2.736936 7.656558 6.188141 -3.649490 -12.727762 -4.476528 0.062500 10.783000
O 2.795765 7.666142 5.867640 2.350711 1.914346 -1.108192 1.000000 -21.566000
H 2.524478 7.774464 5.722603 0.125606 2.438949 -14.839461 0.062500 10.783000
H 2.441553 9.988567 10.546476 6.769475 4.272365 -4.765400 0.062500 10.783000
O 2.638569 9.731826 10.569920 3.064450 -0.142984 -1.149157 1.000000 -21.566000
H 2.697884 9.609686 10.270536 1.679285 -3.188932 -10.598630 0.062500 10.783000
H 2.349007 7.071690 7.758249 8.979214 -1.014148 12.019449 0.062500 10.783000
O 2.092930 7.079739 7.951979 -0.174225 -5.278087 2.448114 1.000000 -21.566000
H 2.217657 7.025883 8.245592 -0.335495 1.338787 -2.649302 0.062500 10.783000
H 3.335405 2.137386 10.176567 -6.522643 -10.733779 12.554075 0.062500 10.783000
O 3.652997 2.045503 10.203278 -0.960365 -2.669499 0.164569 1.000000 -21.566000
H 3.664766 1.872208 10.468889 5.252657 -5.943179 2.339513 0.062500 10.783000
H 3.918354 6.066626 8.606600 -16.409132 5.692320 0.230976 0.062500 10.783000
O 4.162508 6.292648 8.673513 -3.144370 3.091034 1.479434 1.000000 -21.566000
H 4.331241 6.365647 8.405569 0.938832 -7.658499 5.250918 0.062500 10.783000
H 8.170825 8.682772 8.264929 -6.694052 -4.792295 4.710226 0.062500 10.783000
O 8.449778 8.596506 8.389334 -0.313019 -4.329447 1.995259 1.000000 -21.566000
H 8.423588 8.272909 8.432019 -0.303647 -18.203446 -5.744073 0.062500 10.783000
H 3.990835 7.567174 8.801291 -1.226324 5.825204 -7.888557 0.062500 10.783000
O 3.938321 7.888227 8.781020 -2.169698 3.972169 0.268799 1.000000 -21.566000
H 4.094141 8.049079 8.548898 -0.112194 -0.209621 19.711640 0.062500 10.783000
H 5.922784 2.910944 4.390244 6.380355 -11.513699 -9.082147 0.062500 10.783000
O 5.660437 3.095129 4.332325 -0.407950 4.118720 -0.819434 1.000000 -21.566000
H 5.638609 3.151906 4.017240 3.220487 -2.493695 7.490637 0.062500 10.783000
H 3.022654 9.272025 6.157896 -1.085874 5.328614 -2.707936 0.062500 10.783000
O 3.216329 9.461248 6.308876 2.905379 -1.527080 -1.913787 1.000000 -21.566000
H 3.350460 9.351964 6.587782 4.773573 -4.182502 -9.679423 0.062500 10.783000
H 5.461688 7.340385 8.663038 -3.613193 3.330742 10.616694 0.062500 10.783000
O 5.277935 7.589435 8.644656 -0.705478 -4.637448 -0.766434 1.000000 -21.566000
H 5.085020 7.528401 8.896601 1.342595 1.526864 1.958140 0.062500 10.783000
H 8.493349 6.159978 12.059849 -1.012550 2.725520 6.601876 0.062500 10.783000
O 8.201068 6.039366 12.045132 -1.786967 -1.565638 1.797162 1.000000 -21.566000
H 8.108369 5.883195 11.779460 3.856901 9.759132 -3.908469 0.062500 10.783000
H 8.014269 8.311388 3.696070 2.428927 -6.618438 4.040535 0.062500 10.783000
O 8.264122 8.494145 3.713629 2.435750 -4.402020 -2.352457 1.000000 -21.566000
H 8.521845 8.352498 3.849130 9.280806 3.017564 -9.904953 0.062500 10.783000
H 8.187170 5.880950 9.645288 0.000453 3.556099 -1.758243 0.062500 10.783000
O 7.935943 5.939605 9.824823 -2.639636 2.204920 2.379858 1.000000 -21.566000
H 7.698826 5.934737 9.618650 23.676307 8.820363 -1.406154 0.062500 10.783000
H 11.786677 8.488825 11.335153 6.468771 4.434568 -4.663632 0.062500 10.783000
O 11.569567 8.741455 11.357856 3.924493 2.720437 -2.313887 1.000000 -21.566000
H 11.343798 8.649229 11.570964 -8.502066 1.145107 3.207546 0.062500 10.783000
H 11.685247 9.157503 7.963294 -5.162891 1.473904 -8.703524 0.062500 10.783000
O 11.609276 9.126112 8.275482 1.940232 3.007369 -1.165245 1.000000 -21.566000
H 11.449677 8.849989 8.288793 8.460277 -5.560294 11.256814 0.062500 10.783000
H 14.491376 7.620760 7.580920 -4.120111 -11.605055 -3.065184 0.062500 10.783000
O 14.244123 7.436086 7.508502 2.717292 -2.241771 0.839029 1.000000 -21.566000
H 14.347869 7.126969 7.469576 9.269771 5.538633 -1.258275 0.062500 10.783000
H 3.488076 5.876367 11.273581 -11.405267 3.578282 -1.320756 0.062500 10.783000
O 3.436382 6.182944 11.211508 1.007580 -0.908397 1.237583 1.000000 -21.566000
H 3.127766 6.166478 11.144263 0.121888 14.438276 -2.048627 0.062500 10.783000
H 3.035578 8.804163 11.182554 4.643762 -3.646045 4.160021 0.062500 10.783000
O 3.281399 8.618169 11.073079 -4.186456 -0.487464 3.810573 1.000000 -21.566000
H 3.182386 8.406410 10.864440 5.396300 4.829075 -1.682488 0.062500 10.783000
H 4.220909 10.511362 7.260063 10.392284 -9.470836 4.594985 0.062500 10.783000
O 4.316364 10.343603 7.010244 0.811760 -4.353632 -2.151246 1.000000 -21.566000
H 4.539634 10.517227 6.858562 0.438371 -3.618671 14.479112 0.062500 10.783000
H 3.949496 6.533853 7.017645 -2.747966 1.584563 -3.694304 0.062500 10.783000
O 3.848226 6.506499 6.717341 0.833031 -1.134334 -3.157915 1.000000 -21.566000
H 3.561203 6.634597 6.685799 -11.946103 2.040611 7.543536 0.062500 10.783000
H 7.800017 7.152297 6.589098 1.473337 4.999329 9.068586 0.062500 10.783000
O 7.509005 7.285105 6.624449 -3.235249 2.453220 -0.336658 1.000000 -21.566000
H 7.500491 7.591196 6.514214 -8.402921 1.446240 0.570558 0.062500 10.783000
H 4.247123 9.739682 9.699567 -3.344383 14.746622 -2.603132 0.062500 10.783000
O 4.481171 9.519659 9.765755 -3.182721 -0.390981 1.086267 1.000000 -21.566000
H 4.447925 9.224739 9.637637 4.428922 -7.481856 -0.963412 0.062500 10.783000
H 6.435576 7.613675 6.732529 2.766328 -2.451282 1.308564 0.062500 10.783000
O 6.401055 7.928297 6.657976 1.344305 -0.855549 -0.517550 1.000000 -21.566000
H 6.501260 7.952634 6.353693 -0.171060 4.998693 -3.203411 0.062500 10.783000
H 10.398870 10.319378 1.944876 6.796157 -13.985523 7.063522 0.062500 10.783000
O 10.489350 10.206533 2.234273 -0.157668 -0.518374 -0.291423 1.000000 -21.566000
H 10.579946 10.460195 2.409813 -14.761555 0.047969 -2.809506 0.062500 10.783000
H 8.831234 10.859928 10.427334 0.127903 -0.057766 6.812113 0.062500 10.783000
O 8.781223 10.966377 10.125719 2.563861 0.936392 -1.472553 1.000000 -21.566000
H 8.813142 10.695284 9.947271 3.716408 -1.248882 -6.471519 0.062500 10.783000
H 10.227833 5.248396 9.825957 12.223445 11.540531 6.081748 0.062500 10.783000
O 10.304248 5.478424 10.043187 -3.663032 0.260162 1.832436 1.000000 -21.566000
H 10.352045 5.784700 9.915855 -7.530170 -5.413696 5.915206 0.062500 10.783000
H 10.899122 6.124621 9.589587 12.055427 2.898447 11.017074 0.062500 10.783000
O 10.620568 6.198706 9.725766 -1.248564 -0.522687 -4.417619 1.000000 -21.566000
H 10.481067 6.371155 9.487401 -10.952087 -9.917010 -15.317405 0.062500 10.783000
H 12.475989 9.983656 8.609158 -10.719728 8.680744 4.260006 0.062500 10.783000
O 12.515801 9.892962 8.919454 -2.445159 1.136291 -0.566743 1.000000 -21.566000
H 12.223858 9.776810 8.962533 1.369379 -11.771085 -0.960825 0.062500 10.783000
H 0.454921 8.882165 6.505109 6.562798 -4.735523 -5.154181 0.062500 10.783000
O 0.273943 8.621427 6.581314 -2.551024 -1.968373 -1.718814 1.000000 -21.566000
H 0.123118 8.651667 6.866032 -10.007948 -1.015561 -8.977396 0.062500 10.783000
H 14.386136 6.793037 3.153003 1.009100 -2.574967 6.572113 0.062500 10.783000
O 14.052177 6.817114 3.124515 -2.407868 -1.734287 -0.234344 1.000000 -21.566000
H 13.921300 6.663618 3.367699 -2.972727 3.205747 -14.005141 0.062500 10.783000
H 1.161103 9.280396 10.034271 -7.007371 -10.966288 12.587363 0.062500 10.783000
O 1.155899 9.320300 10.347786 -0.873200 -1.695528 -2.495478 1.000000 -21.566000
H 1.182756 9.630204 10.389964 -12.304545 -4.897207 5.667184 0.062500 10.783000
H 1.823789 8.600627 8.645956 0.157706 -9.849615 -3.470117 0.062500 10.783000
O 1.995168 8.620379 8.390021 0.412205 -0.032472 2.149754 1.000000 -21.566000
H 1.955191 8.344768 8.239221 4.245409 15.433233 9.187336 0.062500 10.783000
H 3.136084 9.635992 7.387810 2.817650 14.317600 -7.431756 0.062500 10.783000
O 3.213268 9.399211 7.183578 2.531495 -1.060810 -1.578182 1.000000 -21.566000
H 3.298210 9.161474 7.384184 -2.616781 -3.059551 5.961981 0.062500 10.783000
H 13.993274 9.211329 9.061968 -5.848489 1.466515 12.390949 0.062500 10.783000
O 13.821944 8.945733 9.048988 1.624643 -2.721643 0.041901 1.000000 -21.566000
H 14.037774 8.716451 9.051812 -8.655861 8.329707 -9.039033 0.062500 10.783000
H 5.463851 8.963907 10.177224 -7.859404 1.556157 10.980754 0.062500 10.783000
O 5.325503 8.831523 9.908779 1.498457 0.474745 0.667393 1.000000 -21.566000
H 5.291688 9.068222 9.711674 21.982428 8.211354 3.105484 0.062500 10.783000
H 3.816769 8.195757 7.591011 -7.687885 -4.325185 -2.456911 0.062500 10.783000
O 3.855595 8.186643 7.908908 -3.217936 0.206509 -0.394897 1.000000 -21.566000
H 3.765360 8.467990 8.037924 9.184682 7.121938 6.859474 0.062500 10.783000
H 6.195253 10.801674 9.800671 8.058724 9.761908 -6.874171 0.062500 10.783000
O 6.085240 11.095200 9.824944 3.633248 2.028621 0.069185 1.000000 -21.566000
H 6.256156 11.297945 10.000997 -3.817092 1.805498 13.323863 0.062500 10.783000
H 6.734107 10.284745 8.768240 3.139865 0.494703 4.197636 0.062500 10.783000
O 6.688198 10.253931 9.087343 0.830866 -1.732089 2.831950 1.000000 -21.566000
H 6.451331 10.071819 9.221739 14.341578 -24.967990 -4.029074 0.062500 10.783000
H 7.071843 10.153539 9.497083 -4.527393 0.828759 -1.916955 0.062500 10.783000
O 7.379072 10.145571 9.566191 -0.538552 3.329735 2.615811 1.000000 -21.566000
H 7.497590 9.882983 9.422077 5.881348 3.210036 -1.566305 0.062500 10.783000
H 3.395684 9.968335 6.053727 6.181402 -10.895274 6.143110 0.062500 10.783000
O 3.467650 10.213223 5.848210 1.897493 3.080041 1.849257 1.000000 -21.566000
H 3.341325 10.485110 5.971588 -16.408334 -0.459318 -19.335174 0.062500 10.783000
H 12.508381 14.673165 6.434389 -8.208310 5.245191 3.450323 0.062500 10.783000
O 12.756227 0.126803 6.410503 -3.560517 -2.177040 -3.516460 1.000000 -21.566000
H 13.001671 0.070957 6.616375 -10.945292 -7.524499 -4.795361 0.062500 10.783000
H 11.854522 13.373203 8.529074 0.873744 3.816121 2.826878 0.062500 10.783000
O 12.079447 13.583701 8.450101 0.101332 0.882085 2.060217 1.000000 -21.566000
H 12.187122 13.731581 8.719533 3.538328 3.678932 6.007022 0.062500 10.783000
H 9.276342 10.038862 6.359410 -9.671893 -2.695015 -14.694098 0.062500 10.783000
O 9.238864 9.716253 6.291485 -1.333049 -3.754561 1.361877 1.000000 -21.566000
H 9.191682 9.717660 5.966622 -10.553557 -4.237329 2.270849 0.062500 10.783000
H 10.296286 12.475463 11.539113 -8.704041 -0.328821 -2.868833 0.062500 10.783000
O 10.477428 12.381783 11.298588 -1.041007 -1.899032 -0.256776 1.000000 -21.566000
H 10.340857 12.204740 11.075845 0.287503 -8.766243 5.756649 0.062500 10.783000
H 10.882284 7.734882 4.838735 1.373785 12.765776 13.387508 0.062500 10.783000
O 11.022950 7.895117 5.060013 2.873768 -1.720020 2.554714 1.000000 -21.566000
H 10.905273 8.193860 5.075283 6.120370 7.119464 1.124855 0.062500 10.783000
H 4.501104 9.976002 3.520416 -0.828907 -3.732931 -0.917014 0.062500 10.783000
O 4.471025 10.298454 3.487236 -0.720590 4.147777 -3.821851 1.000000 -21.566000
H 4.244347 10.378251 3.283495 -4.113442 -6.361308 4.562828 0.062500 10.783000
H 11.511693 7.600795 6.429833 9.705533 -0.422353 9.056515 0.062500 10.783000
O 11.564552 7.806060 6.656985 1.101416 2.832304 2.247823 1.000000 -21.566000
H 11.667722 8.094082 6.551589 1.200393 -2.285745 2.491070 0.062500 10.783000
H 13.903675 12.025677 7.844471 -13.023511 -13.143836 -2.655446 0.062500 10.783000
O 13.767517 12.183007 8.083690 1.515024 2.890610 0.860972 1.000000 -21.566000
H 13.480058 12.022568 8.123614 -4.898598 6.493863 13.261901 0.062500 10.783000
H 6.480729 11.939896 6.583495 2.040039 -3.227325 8.885156 0.062500 10.783000
O 6.690701 12.161869 6.688569 1.257476 0.364317 -0.874416 1.000000 -21.566000
H 6.530049 12.325637 6.917516 -9.424109 5.304770 5.247966 0.062500 10.783000
H 8.287220 5.223925 6.376542 -14.383433 9.681943 -4.054506 0.062500 10.783000
O 8.319033 5.480539 6.577774 -2.152147 0.659012 0.708879 1.000000 -21.566000
H 8.423915 5.377358 6.858855 -13.842350 15.789828 2.293700 0.062500 10.783000
H 0.989281 11.107993 3.731638 5.997944 -7.757860 -11.829283 0.062500 10.783000
O 1.001867 11.003081 3.421834 1.087006 1.692269 -1.243073 1.000000 -21.566000
H 0.834255 11.237207 3.271227 3.529213 13.196176 -6.172269 0.062500 10.783000
H 3.164038 11.957744 10.091109 -8.964196 15.285140 6.108596 0.062500 10.783000
O 3.244388 11.681726 9.922577 -2.034919 1.354336 -0.664524 1.000000 -21.566000
H 3.460606 11.535487 10.105881 -3.363815 1.999849 -3.239501 0.062500 10.783000
H 5.529276 8.360684 14.050982 -7.624751 10.922785 -7.549118 0.062500 10.783000
O 5.249091 8.315971 14.208094 -0.556940 0.875162 2.700876 1.000000 -21.566000
H 5.070991 8.566389 14.265859 -6.711425 -1.887531 14.824818 0.062500 10.783000
H 6.352856 11.192212 8.036459 -0.649830 -1.952975 5.192557 0.062500 10.783000
O 6.493088 11.337483 7.783260 -0.647315 0.672234 -2.303346 1.000000 -21.566000
H 6.335541 11.614829 7.749784 7.785018 5.833608 -1.859400 0.062500 10.783000
H 7.081739 9.759793 8.135973 1.970029 -6.745202 -4.108574 0.062500 10.783000
O 7.377542 9.643570 8.085639 2.111425 2.157551 1.021177 1.000000 -21.566000
H 7.364857 9.555279 7.782837 -13.423592 12.802968 1.405582 0.062500 10.783000
H 10.143736 6.322239 11.582205 -4.977312 7.438611 -4.965773 0.062500 10.783000
O 9.971696 6.081854 11.706637 -1.069366 1.491093 0.818536 1.000000 -21.566000
H 10.105806 5.847135 11.524332 2.560711 -4.347545 -0.396995 0.062500 10.783000
H 11.597365 1.790252 13.297644 3.604723 -1.173107 -13.832567 0.062500 10.783000
O 11.706873 1.527511 13.451305 0.722574 2.842076 -2.785179 1.000000 -21.566000
H 12.033750 1.499044 13.492651 -2.493891 14.285456 11.703199 0.062500 10.783000
H 9.788504 11.754856 6.361330 0.612261 12.082234 -5.809585 0.062500 10.783000
O 10.060935 11.662023 6.224009 1.389435 0.093846 -0.435445 1.000000 -21.566000
H 10.170154 11.938482 6.092038 -3.662842 2.791421 -14.879609 0.062500 10.783000
H 12.611992 12.668312 7.274839 7.983264 0.602508 -0.541509 0.062500 10.783000
O 12.713740 12.373356 7.196532 0.302232 1.198736 -2.891603 1.000000 -21.566000
H 13.028447 12.408152 7.203715 -3.576591 14.661938 1.919981 0.062500 10.783000
H 13.332003 8.767343 2.176672 -1.881414 -1.967251 2.392627 0.062500 10.783000
O 13.378204 9.024692 2.334618 2.303369 2.892079 -0.476167 1.000000 -21.566000
H 13.646355 8.975567 2.516441 -1.304392 -5.538484 2.060347 0.062500 10.783000
H 1.407482 13.374435 13.460103 -2.958930 2.000080 -3.046887 0.062500 10.783000
O 1.723475 13.401647 13.426268 -1.795279 0.067625 -0.349597 1.000000 -21.566000
H 1.834831 13.704853 13.452972 4.698194 2.686383 -5.266484 0.062500 10.783000
H 13.684389 11.252546 6.670038 3.891466 -3.310789 -7.483680 0.062500 10.783000
O 13.805927 11.403416 6.400243 -0.774548 1.331542 2.175451 1.000000 -21.566000
H 13.690535 11.222159 6.166513 -8.271238 1.093525 6.072145 0.062500 10.783000
H 3.876963 9.825293 5.789808 -3.993181 -0.277050 5.976353 0.062500 10.783000
O 4.065103 9.588479 5.677498 -2.091052 1.781189 -1.026761 1.000000 -21.566000
H 3.974283 9.317863 5.837749 -0.704417 -6.956277 6.784429 0.062500 10.783000
H 3.966941 11.506654 9.286168 11.117397 3.082481 15.960934 0.062500 10.783000
O 4.269657 11.382983 9.211837 -1.291631 0.057993 -1.248641 1.000000 -21.566000
H 4.313261 11.571511 8.965579 -8.646488 4.794106 -1.453509 0.062500 10.783000
H 7.173200 5.710372 7.817204 0.556697 12.963864 13.129422 0.062500 10.783000
O 7.226760 5.604344 8.109776 2.868145 2.414713 1.502086 1.000000 -21.566000
H 6.955734 5.644098 8.276503 2.263155 0.103732 -7.620992 0.062500 10.783000
H 4.707973 10.480650 9.562806 2.014192 -7.696684 7.294452 0.062500 10.783000
O 4.442550 10.616431 9.469091 0.990524 2.062932 0.664321 1.000000 -21.566000
H 4.444805 10.927134 9.407388 -17.088899 6.001696 12.151352 0.062500 10.783000
H 2.488984 10.656502 8.989536 -5.001548 -7.155658 -8.247666 0.062500 10.783000
O 2.483769 10.744854 8.679629 -1.625792 0.580781 4.467637 1.000000 -21.566000
H 2.661337 10.999751 8.625304 -12.336403 4.419468 0.148135 0.062500 10.783000
H 4.446778 12.004899 8.380083 -15.695591 -10.866121 8.981626 0.062500 10.783000
O 4.153132 11.932424 8.286106 0.303455 -2.833164 -1.113641 1.000000 -21.566000
H 4.080734 11.992750 7.975354 -11.023371 -6.077084 -2.431213 0.062500 10.783000
H 10.501037 7.662407 10.686866 5.272776 9.995660 11.351782 0.062500 10.783000
O 10.701056 7.824282 10.500696 -1.766017 -2.263005 -3.047851 1.000000 -21.566000
H 11.016550 7.761624 10.536359 -2.372889 2.049032 -10.542080 0.062500 10.783000
H 10.464838 8.263447 10.425577 -10.273336 -4.477066 -10.625989 0.062500 10.783000
O 10.333609 8.557801 10.438494 3.124022 0.719803 -0.319955 1.000000 -21.566000
H 10.050010 8.550089 10.274834 12.920247 3.129585 -22.261434 0.062500 10.783000
H 0.365573 0.110787 2.242801 -1.817898 -16.047612 7.014573 0.062500 10.783000
O 0.120809 0.274019 2.371527 3.361005 0.825769 0.596137 1.000000 -21.566000
H 0.237341 0.391644 2.639212 12.449135 -3.374997 -14.992561 0.062500 10.783000
H 11.421922 0.649341 6.536511 -3.181892 -2.690769 -1.171186 0.062500 10.783000
O 11.706449 0.814293 6.527600 -2.795562 0.869905 0.144406 1.000000 -21.566000
H 11.897605 0.584887 6.387313 -3.133319 -6.564548 -5.975696 0.062500 10.783000
H 12.395576 0.571693 4.634738 -3.753184 0.911294 4.851037 0.062500 10.783000
O 12.209465 0.663549 4.883490 -3.836438 0.954502 1.244106 1.000000 -21.566000
H 12.359123 0.920068 5.004998 1.859665 -8.538758 3.425833 0.062500 10.783000
H 12.177689 12.296164 8.327326 -13.006738 3.882949 6.811771 0.062500 10.783000
O 12.220035 12.400198 8.622093 2.645214 0.559278 0.644219 1.000000 -21.566000
H 12.409323 12.648268 8.596856 18.918961 -10.510938 -12.055964 0.062500 10.783000
H 11.415433 12.761024 8.597600 13.942300 -5.980676 -16.896970 0.062500 10.783000
O 11.470567 13.053091 8.706402 3.283140 -1.048989 -4.259758 1.000000 -21.566000
H 11.568213 13.052677 9.010142 3.463757 -2.132172 6.939361 0.062500 10.783000
H 12.889457 13.994239 6.764630 6.261060 9.866839 5.355251 0.062500 10.783000
O 13.207187 14.025208 6.833915 2.935178 -0.361831 2.479481 1.000000 -21.566000
H 13.278772 14.337609 6.886277 2.330969 0.246984 -5.665207 0.062500 10.783000
H 13.317411 11.114914 7.372872 4.787787 -11.462798 0.178305 0.062500 10.783000
O 13.421851 11.059011 7.080724 3.904771 2.286625 3.740447 1.000000 -21.566000
H 13.524589 10.745108 7.055812 -11.979486 12.884200 -8.812034 0.062500 10.783000
H 1.916001 13.195523 9.458252 12.026544 -12.413667 -0.228064 0.062500 10.783000
O 1.822682 13.404409 9.683992 -0.268626 -1.422669 -0.943253 1.000000 -21.566000
H 2.039241 13.642073 9.661269 2.383892 2.719027 10.505077 0.062500 10.783000
H 2.929153 8.774775 12.371443 -3.700980 -13.490325 -10.266530 0.062500 10.783000
O 2.746226 8.517975 12.397520 3.505789 1.140484 3.272892 1.000000 -21.566000
H 2.829543 8.359541 12.650596 -2.085877 2.167101 -13.633070 0.062500 10.783000
H 0.020487 10.573648 14.664244 0.203454 -3.239502 -5.811866 0.062500 10.783000
O 14.494230 10.426593 14.557576 -3.130253 -0.434546 0.933424 1.000000 -21.566000
H 14.390514 10.607735 14.317368 -5.881932 -10.765097 -2.994077 0.062500 10.783000
H 0.824224 13.500773 9.321506 10.145689 4.267023 -1.900589 0.062500 10.783000
O 0.708611 13.229785 9.178493 2.013425 -2.097140 -3.831641 1.000000 -21.566000
H 0.801242 12.945647 9.297654 -0.350251 17.132104 8.952634 0.062500 10.783000
H 5.725651 7.670827 3.126736 -1.287350 -2.531458 -16.485783 0.062500 10.783000
O 5.561088 7.944952 3.160119 2.148195 1.350615 -0.502233 1.000000 -21.566000
H 5.681514 8.122543 2.925434 3.968683 -5.183443 -11.033788 0.062500 10.783000
H 3.565605 9.188955 8.563882 9.003059 1.082262 -1.452496 0.062500 10.783000
O 3.507965 8.963283 8.338359 -2.491646 0.795259 -1.001664 1.000000 -21.566000
H 3.662054 9.073762 8.088029 2.467855 0.005421 -1.761838 0.062500 10.783000
H 7.149458 0.099259 6.418594 6.603706 0.450333 3.711394 0.062500 10.783000
O 7.311011 14.719881 6.166075 -3.262206 -1.196128 0.162665 1.000000 -21.566000
H 7.254347 14.408266 6.136331 6.021766 2.023039 -9.063264 0.062500 10.783000
H 9.004487 0.714593 5.397476 6.525165 -5.190567 -5.712348 0.062500 10.783000
O 9.168073 0.638922 5.670373 0.124733 -2.786864 -1.177582 1.000000 -21.566000
H 9.308376 0.358514 5.564381 0.405930 -1.461461 11.538524 0.062500 10.783000
H 11.691244 2.064434 7.685986 9.819327 1.396464 -8.024270 0.062500 10.783000
O 11.867879 1.791698 7.699039 -1.007417 0.804655 -1.312538 1.000000 -21.566000
H 12.182589 1.859309 7.686699 -1.038152 2.642446 -7.369994 0.062500 10.783000
H 8.895181 13.149272 3.078740 2.433772 -7.681240 6.367178 0.062500 10.783000
O 8.874780 13.142144 3.387272 2.215537 -1.553409 -0.988438 1.000000 -21.566000
H 8.575445 13.038121 3.448518 1.303233 -6.659994 12.866750 0.062500 10.783000
H 14.362260 2.120624 3.713452 3.006665 6.993493 3.300469 0.062500 10.783000
O 14.169828 2.059165 3.951500 2.835804 1.570402 -2.001823 1.000000 -21.566000
H 13.871724 2.139237 3.866702 7.317396 -0.231206 1.622492 0.062500 10.783000
H 11.863382 12.836258 6.980192 -1.703466 1.505025 2.950667 0.062500 10.783000
O 11.870333 12.723157 6.669608 -4.945677 0.539430 0.702706 1.000000 -21.566000
H 11.553251 12.659974 6.611427 -7.699456 2.034890 -7.839954 0.062500 10.783000
H 9.558692 1.748283 7.637589 -5.625442 -6.571702 2.171625 0.062500 10.783000
O 9.884537 1.791172 7.677397 -1.553763 -0.202341 0.054458 1.000000 -21.566000
H 9.917052 1.981515 7.922735 9.127457 -3.061299 6.746864 0.062500 10.783000
H 0.427987 13.683728 5.692523 -8.644807 1.174129 12.919799 0.062500 10.783000
O 0.193456 13.787784 5.888121 -1.407167 2.119060 1.140043 1.000000 -21.566000
H 0.093663 14.081088 5.795846 -14.130970 -9.341553 2.287024 0.062500 10.783000
H 1.159701 1.181249 4.433917 -2.867513 -7.849784 7.933821 0.062500 10.783000
O 1.421796 0.999330 4.496478 -0.559665 1.281673 -0.013303 1.000000 -21.566000
H 1.438894 0.730543 4.299750 7.935711 -3.532043 -12.883099 0.062500 10.783000
H 1.206483 14.151232 4.823809 -7.662528 -8.720733 -6.505507 0.062500 10.783000
O 1.301034 14.457873 4.840273 -0.407266 0.884602 -3.762776 1.000000 -21.566000
H 1.060091 14.635530 4.931483 0.218517 2.807640 -2.238778 0.062500 10.783000
H 3.514032 0.220085 7.972533 -3.173738 15.952778 1.675794 0.062500 10.783000
O 3.647805 0.429591 8.189517 0.644866 -1.459152 -0.316213 1.000000 -21.566000
H 3.390216 0.546464 8.337787 -13.660837 -10.641751 -3.256425 0.062500 10.783000
H 5.351427 3.854548 2.042632 5.075526 4.203952 8.065095 0.062500 10.783000
O 5.280620 3.992456 2.318771 -0.470592 -2.633478 -2.697481 1.000000 -21.566000
H 4.995316 4.138521 2.284029 8.436176 12.501672 0.886525 0.062500 10.783000
H 4.320034 6.735185 13.217661 1.317209 -12.854093 5.300773 0.062500 10.783000
O 4.146087 6.698343 13.487081 2.570875 0.475565 -0.970111 1.000000 -21.566000
H 4.255732 6.468221 13.669569 -13.102230 -0.482962 17.104138 0.062500 10.783000
H 0.120087 12.704226 5.823674 18.247482 -4.971409 -2.505726 0.062500 10.783000
O 0.184566 12.831055 5.551472 1.872928 -0.549242 2.412925 1.000000 -21.566000
H 0.456950 13.014675 5.548506 12.399449 -7.543320 -10.394527 0.062500 10.783000
H 9.060736 12.679245 9.791782 3.971180 -0.642063 -8.504956 0.062500 10.783000
O 9.193143 12.462341 9.615425 -0.388789 1.892963 -1.723028 1.000000 -21.566000
H 8.966444 12.260057 9.510098 15.836466 -1.821504 0.315404 0.062500 10.783000
H 9.597643 0.907697 10.161860 5.102730 1.386302 -5.495564 0.062500 10.783000
O 9.582655 1.031683 9.870710 -0.822554 -1.741225 2.531566 1.000000 -21.566000
H 9.302626 0.942253 9.770466 0.375866 -3.614512 -0.635518 0.062500 10.783000
H 10.489095 2.158072 5.344993 1.827085 -2.755532 -0.948188 0.062500 10.783000
O 10.731642 2.196426 5.537645 0.155435 -2.781607 1.606844 1.000000 -21.566000
H 10.790415 1.901174 5.653421 11.459265 8.449361 -3.478276 0.062500 10.783000
H 13.119278 13.295786 3.088322 -3.207170 0.550110 -2.573363 0.062500 10.783000
O 13.076074 12.972771 3.033843 -1.495599 0.426992 1.770669 1.000000 -21.566000
H 12.934423 12.961231 2.750206 7.673261 -1.315748 -5.298110 0.062500 10.783000
H 13.552498 1.967570 7.003831 -1.496714 4.555982 -11.642818 0.062500 10.783000
O 13.292325 1.773749 7.050185 -1.520633 1.398208 0.639810 1.000000 -21.566000
H 13.175494 1.890726 7.327881 10.555890 2.850489 4.373080 0.062500 10.783000
H 10.753868 0.232420 6.505289 13.789215 11.719643 3.714098 0.062500 10.783000
O 11.073721 0.192217 6.508816 4.633145 2.023326 2.939134 1.000000 -21.566000
H 11.141371 14.638869 6.376655 -1.714344 5.923070 -3.920938 0.062500 10.783000
H 10.329745 1.216292 11.268177 15.800195 2.892847 -4.614985 0.062500 10.783000
O 10.273870 1.031732 11.534339 3.157177 2.546728 -2.960592 1.000000 -21.566000
H 10.362457 0.732021 11.447365 2.688644 -1.856029 -1.981533 0.062500 10.783000
H 12.776144 0.250059 8.991020 -8.554449 -2.939560 -6.809512 0.062500 10.783000
O 13.100531 0.222942 9.028696 1.481577 0.235715 -2.526656 1.000000 -21.566000
H 13.153301 0.265730 9.354288 -10.122508 7.514270 8.558508 0.062500 10.783000
H 5.133853 1.363438 7.878837 -3.157853 12.187148 0.711744 0.062500 10.783000
O 4.818713 1.425593 7.896953 1.132197 0.533472 -2.092773 1.000000 -21.566000
H 4.675295 1.160353 7.780451 -17.336159 -0.827726 4.610441 0.062500 10.783000
H 4.609510 13.821366 6.071401 -8.991377 8.541107 6.172802 0.062500 10.783000
O 4.675515 14.123425 6.169138 0.870074 -2.904532 -0.571342 1.000000 -21.566000
H 4.619814 14.155185 6.484945 -0.759083 -12.815956 12.056039 0.062500 10.783000
H 2.740645 0.549907 6.398555 -6.925859 0.251133 1.097791 0.062500 10.783000
O 2.747152 0.385790 6.671216 1.845867 2.753850 2.667728 1.000000 -21.566000
H 2.617576 0.085038 6.637383 21.103360 -4.173569 -4.986728 0.062500 10.783000
H 14.091750 11.186240 5.306668 -2.233579 -2.130613 -16.476321 0.062500 10.783000
O 14.190846 11.389923 5.094745 -1.518587 0.198732 1.941724 1.000000 -21.566000
H 14.242983 11.229085 4.821909 -13.208442 -3.022888 5.290639 0.062500 10.783000
H 3.029458 11.548821 13.785225 5.139358 -6.127349 7.616969 0.062500 10.783000
O 3.192779 11.749136 13.577121 -1.485538 -0.580064 -0.182627 1.000000 -21.566000
H 2.992171 11.829110 13.320897 2.654974 3.950518 -10.663848 0.062500 10.783000
H 1.324021 2.279015 12.706930 8.409180 -3.168278 16.253056 0.062500 10.783000
O 1.125958 2.029559 12.704456 3.251710 -0.481791 -1.053170 1.000000 -21.566000
H 0.857920 2.184164 12.694170 0.132532 -4.965475 11.641205 0.062500 10.783000
H 11.285284 13.792499 11.323996 -12.046218 -4.344155 -16.043545 0.062500 10.783000
O 11.540736 13.611654 11.274614 -2.151553 -0.280136 1.292404 1.000000 -21.566000
H 11.488371 13.321456 11.161341 0.715611 7.769932 5.671139 0.062500 10.783000
H 9.913309 13.209521 8.295463 -12.653308 -10.187145 10.053016 0.062500 10.783000
O 9.922541 13.518695 8.205207 0.596282 0.597988 0.174509 1.000000 -21.566000
H 9.706574 13.702007 8.377295 -1.368569 -3.089205 -10.463092 0.062500 10.783000
H 5.817997 3.270447 10.131546 6.579601 -6.645986 0.866111 0.062500 10.783000
O 6.031358 3.266148 9.889278 2.420072 4.070176 2.778628 1.000000 -21.566000
H 6.040862 2.948167 9.824646 -1.640654 -1.993157 4.204066 0.062500 10.783000
H 7.672033 3.104288 9.600348 1.963379 1.059054 -7.661106 0.062500 10.783000
O 7.967695 3.041023 9.697027 -1.176821 1.523938 -0.576699 1.000000 -21.566000
H 8.176188 3.219799 9.510176 -0.375004 -1.256115 3.952993 0.062500 10.783000
H 3.207438 12.931674 9.517001 -10.550168 7.948691 -5.099623 0.062500 10.783000
O 2.981901 12.976865 9.749163 1.781709 -0.339684 1.414076 1.000000 -21.566000
H 2.956881 13.289899 9.778628 8.789026 -4.632066 7.401825 0.062500 10.783000
H 6.798287 2.015220 8.070181 2.570266 -9.328833 3.990739 0.062500 10.783000
O 7.106727 2.098926 8.010281 1.506707 -0.059134 0.798126 1.000000 -21.566000
H 7.224279 1.993803 7.726971 -5.529780 7.325014 -0.133627 0.062500 10.783000
H 1.313055 4.168423 11.476747 3.267538 -3.576661 -12.256437 0.062500 10.783000
O 1.034781 4.055197 11.614235 -1.070589 0.825157 -2.819775 1.000000 -21.566000
H 0.884491 4.290785 11.771154 -4.884651 0.943468 -4.256201 0.062500 10.783000
H 11.303114 2.173847 10.310330 -10.058314 -4.783115 -12.152050 0.062500 10.783000
O 11.270124 2.325635 10.028165 -0.108542 1.368268 -2.550894 1.000000 -21.566000
H 11.556991 2.384272 9.897908 -7.888062 2.225740 -8.741532 0.062500 10.783000
H 12.065450 2.753644 11.569652 12.408222 -1.686214 2.468893 0.062500 10.783000
O 12.231486 2.950269 11.369829 3.435681 1.843397 0.844574 1.000000 -21.566000
H 12.278002 2.747279 11.117412 1.454943 -10.183963 -14.121159 0.062500 10.783000
H 1.175728 1.255592 1.366184 5.367804 5.302756 -6.584598 0.062500 10.783000
O 1.015784 1.444283 1.170214 6.615235 0.396244 0.574669 1.000000 -21.566000
H 0.885757 1.231220 0.975982 -7.591780 -13.349077 14.199365 0.062500 10.783000
H 0.249799 14.126997 13.984620 2.356647 1.445981 1.482923 0.062500 10.783000
O 0.222647 14.313709 13.720880 2.595549 -1.303447 -0.042171 1.000000 -21.566000
H 14.670922 14.318095 13.610419 15.073800 -5.920272 -12.111635 0.062500 10.783000
H 13.700802 14.383023 7.636726 -13.171006 -4.294983 -4.348053 0.062500 10.783000
O 13.692894 14.548579 7.900652 0.368451 5.193083 -2.238082 1.000000 -21.566000
H 13.559930 14.352048 8.111045 16.489015 -1.920933 -0.264496 0.062500 10.783000
H 5.047692 1.612387 10.574279 -4.132587 1.542638 -6.936741 0.062500 10.783000
O 5.190296 1.729440 10.319115 1.916910 -0.790132 0.913861 1.000000 -21.566000
H 5.110042 1.573186 10.039177 3.972075 4.922039 -3.077891 0.062500 10.783000
H 8.319765 0.998468 12.601832 7.669468 -5.396534 -2.907100 0.062500 10.783000
O 8.482192 1.202389 12.404191 -4.248666 -0.944811 -0.604148 1.000000 -21.566000
H 8.720558 1.060347 12.262006 -4.514962 -7.972545 -11.153497 0.062500 10.783000
H 7.483185 14.036769 12.263663 -3.724993 0.307487 9.251217 0.062500 10.783000
O 7.264505 14.211955 12.408146 2.783557 -1.973622 3.978559 1.000000 -21.566000
H 7.261954 14.148645 12.729089 -13.327282 1.540809 -0.280706 0.062500 10.783000
H 1.904150 5.728219 11.815297 0.634061 -9.450854 8.678165 0.062500 10.783000
O 1.659346 5.561393 11.941635 -1.610199 -0.072906 -3.276864 1.000000 -21.566000
H 1.453511 5.477877 11.701453 -3.679016 2.606077 5.470154 0.062500 10.783000
H 4.956546 4.391526 6.500901 -15.666580 -13.418875 3.195258 0.062500 10.783000
O 5.176065 4.172986 6.552072 -1.662138 0.161262 -1.729128 1.000000 -21.566000
H 5.380977 4.175292 6.302370 -5.143589 6.944724 -8.261090 0.062500 10.783000
H 6.066524 3.950507 7.622133 -9.565178 4.340182 5.108701 0.062500 10.783000
O 6.090022 4.242673 7.501544 -0.415198 -3.623285 -1.632943 1.000000 -21.566000
H 5.816701 4.366177 7.381811 -3.870886 6.512382 5.056987 0.062500 10.783000
H 8.679472 2.821037 8.156242 -6.101210 0.010089 0.204695 0.062500 10.783000
O 8.613972 3.135788 8.147527 -0.004461 -0.875600 -2.706602 1.000000 -21.566000
H 8.305752 3.169621 8.054559 0.794349 7.153006 -5.202537 0.062500 10.783000
H 9.736441 4.642295 7.295235 -0.621629 -3.194639 2.972904 0.062500 10.783000
O 9.643667 4.346521 7.389391 2.890541 -0.412583 -2.012255 1.000000 -21.566000
H 9.470900 4.220392 7.155433 -5.145214 9.927869 13.257777 0.062500 10.783000
H 10.093122 0.121904 6.137998 -2.985892 3.163373 3.950833 0.062500 10.783000
O 10.234089 0.217334 6.408065 3.164074 -1.623562 -2.353547 1.000000 -21.566000
H 10.052681 0.080073 6.636619 -2.585635 2.126831 -11.198845 0.062500 10.783000
H 11.291434 5.075735 9.326171 -12.357531 10.240437 4.181421 0.062500 10.783000
O 11.363823 5.038782 9.011564 2.278933 -0.860824 -0.500171 1.000000 -21.566000
H 11.575908 5.256305 8.940350 12.956747 -18.624390 -12.878846 0.062500 10.783000
H 9.779569 4.136426 12.854777 8.436596 -2.984719 8.249013 0.062500 10.783000
O 9.991283 4.341434 12.701530 2.928599 1.990552 -1.532603 1.000000 -21.566000
H 9.838757 4.332849 12.412843 -4.070055 1.759181 -1.916873 0.062500 10.783000
H 14.676862 13.739224 10.324159 -6.885624 -5.698867 -17.997899 0.062500 10.783000
O 14.567224 13.932485 10.566415 -0.144301 2.088592 -0.140277 1.000000 -21.566000
H 14.343199 13.772565 10.719101 -3.383105 21.403538 7.695859 0.062500 10.783000
H 0.768929 13.736342 4.297225 -8.223042 4.790804 8.148108 0.062500 10.783000
O 0.768688 13.554733 4.564528 -1.382454 -2.175339 2.874143 1.000000 -21.566000
H 0.643537 13.277570 4.461087 -1.116392 -16.609460 14.231248 0.062500 10.783000
H 2.485003 12.270350 2.717501 -10.223265 5.858391 9.221103 0.062500 10.783000
O 2.778248 12.340111 2.837668 3.872339 2.240844 0.735130 1.000000 -21.566000
H 2.930815 12.438375 2.574829 -9.820689 0.244387 -6.574618 0.062500 10.783000
H 5.682487 14.164747 5.943145 13.175345 2.549320 -14.638047 0.062500 10.783000
O 5.807065 14.453354 5.903135 -1.808096 -0.158162 9.382483 1.000000 -21.566000
H 5.687693 14.558730 5.617214 5.434466 7.147914 0.292292 0.062500 10.783000
H 6.353279 1.865194 4.741319 0.535996 4.237121 8.715097 0.062500 10.783000
O 6.658242 1.837079 4.645192 2.666003 1.256799 -0.599193 1.000000 -21.566000
H 6.807490 2.075229 4.796879 -7.173427 -7.929236 -4.904965 0.062500 10.783000
H 2.741323 12.070661 10.614328 3.560085 -0.186236 13.359521 0.062500 10.783000
O 2.504316 11.921378 10.777475 0.019394 -1.883204 3.040960 1.000000 -21.566000
H 2.438978 12.138456 11.000324 10.992517 3.229155 12.002848 0.062500 10.783000
H 3.558387 5.410917 10.722957 -16.624575 -15.620836 -7.293924 0.062500 10.783000
O 3.715358 5.454412 10.445016 -0.617019 0.491922 1.218854 1.000000 -21.566000
H 3.545565 5.652899 10.251670 1.916383 6.448095 -2.039688 0.062500 10.783000
H 4.134946 2.610850 12.854341 -3.489835 -14.875327 -0.579968 0.062500 10.783000
O 4.427546 2.502022 12.735623 -1.135760 -2.022876 2.981724 1.000000 -21.566000
H 4.349823 2.480777 12.420805 1.418625 -3.770883 -4.143176 0.062500 10.783000
H 3.409479 6.398058 12.228889 1.393133 12.769864 -4.298650 0.062500 10.783000
O 3.441904 6.616189 12.000268 -3.080000 1.547174 -1.924023 1.000000 -21.566000
H 3.434189 6.448424 11.721254 1.557409 5.050953 -3.022933 0.062500 10.783000
H 6.576310 2.881966 10.783787 -2.289312 5.493354 12.522173 0.062500 10.783000
O 6.827405 3.089730 10.736089 2.504510 0.112453 -1.620203 1.000000 -21.566000
H 7.064225 2.878342 10.663540 -13.821205 4.037159 1.366213 0.062500 10.783000
H 7.200643 3.307225 7.826312 8.572654 11.191063 3.070921 0.062500 10.783000
O 7.176482 3.091798 7.591108 -0.980529 1.263885 0.455242 1.000000 -21.566000
H 7.105546 2.822494 7.734883 -2.300308 16.508977 7.634671 0.062500 10.783000
H 9.065121 0.371293 9.471988 5.243537 4.799870 -7.984679 0.062500 10.783000
O 9.063200 0.079719 9.315523 -1.765149 3.266828 -1.201564 1.000000 -21.566000
H 8.796479 14.677267 9.382573 11.120565 -1.349030 0.214337 0.062500 10.783000
H 9.100174 0.241867 8.801727 15.613736 9.899778 -2.471306 0.062500 10.783000
O 9.153179 0.272674 8.495700 -2.076276 -5.086951 -4.209099 1.000000 -21.566000
H 8.854903 0.229958 8.395440 -13.660612 -1.404275 11.795010 0.062500 10.783000
H 11.467416 4.242936 13.836891 6.435384 6.086544 -22.306339 0.062500 10.783000
O 11.755120 4.364586 13.902142 0.513814 2.753129 1.490092 1.000000 -21.566000
H 11.734538 4.499172 14.207888 8.367532 9.815022 -0.855284 0.062500 10.783000
H 0.873781 2.662742 3.361305 -7.226930 -3.418070 0.494978 0.062500 10.783000
O 0.720959 2.416536 3.243207 -0.886994 -3.363969 2.654374 1.000000 -21.566000
H 0.464887 2.356386 3.427130 11.879172 -13.785258 12.890071 0.062500 10.783000
H 14.114453 8.367335 8.301523 -4.792996 -2.856263 -1.098024 0.062500 10.783000
O 14.271789 8.193371 8.517873 -1.672127 2.612461 -0.831564 1.000000 -21.566000
H 14.431087 7.978060 8.349386 3.974862 -10.414940 1.099643 0.062500 10.783000
H 0.574809 7.550508 9.554127 12.176081 -6.818509 5.948170 0.062500 10.783000
O 0.552397 7.854998 9.464548 0.998497 0.329061 0.885660 1.000000 -21.566000
H 0.260357 7.971718 9.530728 -5.158656 -12.805271 6.700436 0.062500 10.783000
H 13.090957 7.466312 9.648849 8.534896 -7.757645 -7.000529 0.062500 10.783000
O 12.846479 7.682778 9.637129 -1.214168 -2.024986 -2.882593 1.000000 -21.566000
H 12.666850 7.662181 9.908776 17.983625 -11.942316 12.321322 0.062500 10.783000
H 4.866088 13.385285 3.442593 5.513745 0.522273 -3.834087 0.062500 10.783000
O 4.922396 13.317261 3.137497 -0.445861 -0.523753 -0.179013 1.000000 -21.566000
H 5.240131 13.317730 3.079188 -8.556169 -5.662328 -3.311252 0.062500 10.783000
H 12.660171 7.560417 3.775980 0.132525 -13.640344 -4.344858 0.062500 10.783000
O 12.755543 7.522389 4.092330 1.431894 -2.649369 3.774791 1.000000 -21.566000
H 12.498732 7.430426 4.255579 -7.076896 -15.608137 7.408492 0.062500 10.783000
H 5.844219 12.804624 8.495826 7.752969 -10.236833 -7.078654 0.062500 10.783000
O 6.047939 13.008231 8.355860 -0.943013 -1.176923 2.590595 1.000000 -21.566000
H 6.310446 13.010047 8.541298 -8.494082 7.840163 0.592423 0.062500 10.783000
H 5.817775 4.379029 12.510508 -2.677311 -14.066063 3.910695 0.062500 10.783000
O 5.968031 4.100988 12.435601 3.363652 -0.476794 0.726948 1.000000 -21.566000
H 5.909554 3.912668 12.698733 4.619172 10.359431 -6.223087 0.062500 10.783000
H 6.009655 2.320902 10.767696 0.663518 -7.205520 5.615593 0.062500 10.783000
O 6.029667 2.621404 10.897599 -0.520053 2.538032 2.225055 1.000000 -21.566000
H 5.781834 2.793390 10.793999 -12.397491 5.377408 7.890794 0.062500 10.783000
H 7.191589 7.535620 12.907618 -14.708292 4.199002 -9.231019 0.062500 10.783000
O 7.314473 7.359907 12.665977 1.622486 1.574912 2.229034 1.000000 -21.566000
H 7.333635 7.053904 12.772124 9.757437 -2.702261 -11.788814 0.062500 10.783000
H 6.786011 6.305429 11.619536 -1.135354 -7.891584 4.714871 0.062500 10.783000
O 6.845995 6.042372 11.467605 -0.071594 0.290381 2.706474 1.000000 -21.566000
H 6.584671 6.001114 11.257443 -8.441317 3.392077 13.233193 0.062500 10.783000
H 5.606697 7.547321 4.644553 -0.901507 6.534816 3.086017 0.062500 10.783000
O 5.792352 7.494816 4.889940 0.179152 -0.241539 -2.993094 1.000000 -21.566000
H 6.044346 7.317854 4.780130 3.845396 5.270770 -1.159186 0.062500 10.783000
H 10.107391 6.306946 5.108870 -5.024720 -6.151163 -16.488884 0.062500 10.783000
O 10.086171 6.030939 4.972445 0.553367 -1.388979 -0.429993 1.000000 -21.566000
H 10.259788 6.061235 4.712036 -8.551125 -16.124538 -8.683088 0.062500 10.783000
H 13.076188 4.044283 12.342248 9.094049 -5.840105 -0.799692 0.062500 10.783000
O 12.839335 3.834088 12.278920 -2.811924 -1.505837 0.466450 1.000000 -21.566000
H 12.996819 3.612235 12.104164 -7.547037 -0.625322 1.425645 0.062500 10.783000
H 10.768456 3.933507 13.422236 0.988822 -1.288683 -2.239622 0.062500 10.783000
O 10.974390 4.146256 13.539709 -2.718882 -1.352130 -1.276990 1.000000 -21.566000
H 10.747308 4.308484 13.710682 -10.389824 3.143577 -5.214310 0.062500 10.783000
H 10.455242 5.615570 0.021629 -3.018621 -4.669075 3.349426 0.062500 10.783000
O 10.456981 5.845983 0.270186 1.621431 0.857716 -1.314599 1.000000 -21.566000
H 10.396925 5.724971 0.555779 -13.742194 -1.303628 12.325575 0.062500 10.783000
H 0.398759 2.056148 7.625797 -4.486504 14.274911 -17.800596 0.062500 10.783000
O 0.298456 2.163110 7.922202 1.030813 2.206270 -1.416776 1.000000 -21.566000
H 0.511650 2.361726 8.068805 12.752383 1.069528 -8.984821 0.062500 10.783000
H 0.637752 5.924604 7.638673 -13.564080 3.814045 -4.101999 0.062500 10.783000
O 0.354967 6.053351 7.711161 1.355799 1.818042 -1.198500 1.000000 -21.566000
H 0.232848 5.874184 7.947252 -2.479843 16.395258 10.544930 0.062500 10.783000
H 1.377513 5.768043 7.631433 -7.755165 0.497506 8.955039 0.062500 10.783000
O 1.088340 5.623864 7.640911 1.069147 0.191694 -0.761200 1.000000 -21.566000
H 1.145777 5.317804 7.636988 -2.091864 -1.086029 -0.105041 0.062500 10.783000
H 3.178836 1.108656 9.966706 -7.208620 -14.109549 9.655607 0.062500 10.783000
O 3.424756 0.902595 9.946365 -0.077629 -0.929020 2.791489 1.000000 -21.566000
H 3.393826 0.715625 9.693918 13.225743 7.094914 -4.895125 0.062500 10.783000
H 2.428425 2.359624 10.344884 1.676962 0.245522 -1.279177 0.062500 10.783000
O 2.686194 2.190376 10.434459 -1.925199 -2.235344 -1.757206 1.000000 -21.566000
H 2.680142 2.142798 10.744644 -5.037934 -7.550578 1.781559 0.062500 10.783000
H 4.939132 4.473727 10.530294 -1.269687 -16.259237 -6.957369 0.062500 10.783000
O 4.725340 4.443161 10.761378 -2.869920 -6.111425 1.775801 1.000000 -21.566000
H 4.442086 4.445079 10.607896 1.883136 -3.438177 2.150070 0.062500 10.783000
H 3.339711 3.856583 10.348870 -11.876738 2.587430 -3.198579 0.062500 10.783000
O 3.623332 3.894638 10.205603 2.627493 -1.043084 -3.344512 1.000000 -21.566000
H 3.704869 4.206760 10.240555 14.703163 1.054545 6.442385 0.062500 10.783000
H 4.740123 4.510882 11.215951 16.860908 20.588916 4.420496 0.062500 10.783000
O 4.750475 4.469105 11.540866 -0.572175 -4.405249 1.082385 1.000000 -21.566000
H 4.463753 4.351483 11.655499 3.638551 0.126016 3.476741 0.062500 10.783000
H 3.840029 5.929246 0.789667 -9.315111 1.919884 3.532869 0.062500 10.783000
O 3.907534 5.667728 0.963220 1.122544 1.220962 -0.562390 1.000000 -21.566000
H 4.215805 5.690961 0.998893 5.353283 15.255704 0.982203 0.062500 10.783000
H 6.698400 3.646617 6.200547 -4.853221 1.585206 2.173184 0.062500 10.783000
O 6.457394 3.689676 6.398486 -2.056050 0.588988 -2.811294 1.000000 -21.566000
H 6.492398 3.461795 6.632958 -0.510026 -10.818018 -1.530086 0.062500 10.783000
H 8.793782 13.055039 13.736566 7.906959 -2.728815 0.529865 0.062500 10.783000
O 8.655631 13.272910 13.538789 -3.890872 -0.399450 0.246926 1.000000 -21.566000
H 8.919911 13.375062 13.365913 -6.265264 10.466140 1.965546 0.062500 10.783000
H 11.803026 3.622177 0.795464 -10.366761 -5.486018 5.523959 0.062500 10.783000
O 11.945097 3.430425 0.580406 1.324454 0.200765 0.085244 1.000000 -21.566000
H 11.726166 3.187689 0.547377 -8.958021 -10.346567 2.454827 0.062500 10.783000
H 9.537152 14.422551 11.639594 6.743657 -6.035909 -4.530177 0.062500 10.783000
O 9.474102 14.499650 11.948843 0.592991 2.677310 -3.522121 1.000000 -21.566000
H 9.425142 14.212230 12.096864 16.346281 1.703373 -0.938969 0.062500 10.783000
H 13.472486 5.442350 9.544608 0.079289 8.657431 -15.202947 0.062500 10.783000
O 13.521041 5.613807 9.810827 -0.789753 0.118374 0.497652 1.000000 -21.566000
H 13.368384 5.904829 9.815888 -2.030366 1.190698 10.669815 0.062500 10.783000
H 13.165154 4.199205 8.615707 20.706573 3.817694 -7.665231 0.062500 10.783000
O 13.320903 3.933294 8.597594 -1.002224 -1.506845 1.394924 1.000000 -21.566000
H 13.590505 3.988605 8.749677 2.416451 4.718586 -16.158789 0.062500 10.783000
H 0.291302 7.641435 10.779880 -3.658834 -2.646640 -16.844061 0.062500 10.783000
O 0.503000 7.440483 10.909748 -2.014238 -1.499662 0.124265 1.000000 -21.566000
H 0.564968 7.517336 11.201301 4.697061 5.194552 -1.334067 0.062500 10.783000
H 1.308927 1.754146 6.885410 0.005892 -3.683342 -5.973448 0.062500 10.783000
O 1.551896 1.600469 7.048533 0.845005 2.692092 1.759139 1.000000 -21.566000
H 1.416018 1.388258 7.254347 6.020598 0.447590 9.003926 0.062500 10.783000
H 2.980938 6.812082 7.668488 2.401272 -2.890320 -13.946789 0.062500 10.783000
O 2.816852 7.081398 7.552987 -3.157301 -0.930664 -0.438508 1.000000 -21.566000
H 2.816063 7.019727 7.235347 13.164050 -6.420635 8.851008 0.062500 10.783000
H 4.296176 0.356954 4.189503 -25.310409 -7.199138 4.130568 0.062500 10.783000
O 4.429655 0.217572 4.437314 -2.018343 -2.211828 -0.644316 1.000000 -21.566000
H 4.181434 0.048897 4.551223 -4.218768 2.674992 -3.418547 0.062500 10.783000
H 3.059277 6.547421 8.284184 15.418750 -3.155520 -1.271718 0.062500 10.783000
O 3.247472 6.427274 8.071681 3.256151 -1.291052 -0.706352 1.000000 -21.566000
H 3.381337 6.206706 8.257627 -5.317662 -0.190851 1.004062 0.062500 10.783000
H 3.828927 4.328171 8.676782 0.993086 4.697471 -6.513316 0.062500 10.783000
O 3.699975 4.536559 8.467043 -1.478717 -0.969646 -0.226382 1.000000 -21.566000
H 3.542828 4.787567 8.595853 16.816590 15.315598 7.996160 0.062500 10.783000
H 7.369811 0.509489 0.294854 8.666873 -7.108015 -6.750478 0.062500 10.783000
O 7.274880 0.373378 0.027410 -1.629398 1.225159 -0.607625 1.000000 -21.566000
H 7.085014 0.571978 14.607815 2.379093 1.247774 1.308558 0.062500 10.783000
H 2.315710 6.548037 0.207894 1.222066 10.252481 2.858915 0.062500 10.783000
O 2.384956 6.373919 0.466019 -1.561094 1.059724 1.037101 1.000000 -21.566000
H 2.292604 6.542871 0.729507 -5.613796 -2.692935 1.523779 0.062500 10.783000
H 2.368541 2.776085 11.588661 -0.705601 8.178491 10.460559 0.062500 10.783000
O 2.677613 2.703003 11.604646 -0.132011 -0.189341 -1.304957 1.000000 -21.566000
H 2.704164 2.769243 11.914513 14.693680 8.497659 -10.463911 0.062500 10.783000
H 6.518059 5.559121 6.155785 0.748688 -5.922528 4.951978 0.062500 10.783000
O 6.377010 5.283450 6.064782 -1.288530 1.541325 -4.900622 1.000000 -21.566000
H 6.475876 5.238035 5.765021 -0.838309 -0.125772 0.753160 0.062500 10.783000
H 11.250145 9.550643 0.495863 7.416475 -4.697210 -0.352412 0.062500 10.783000
O 11.160900 9.604196 0.802232 -0.416709 -1.106903 -2.556904 1.000000 -21.566000
H 10.859776 9.540032 0.769590 14.775947 -0.535092 0.089626 0.062500 10.783000
H 12.529025 8.946409 10.786651 1.716197 1.966372 9.136046 0.062500 10.783000
O 12.601941 8.754121 10.527764 0.417383 -0.925548 -0.507999 1.000000 -21.566000
H 12.574672 8.921860 10.253036 -9.532538 -3.199941 9.965083 0.062500 10.783000
H 9.181400 3.775000 12.757965 -9.737439 0.693903 6.039726 0.062500 10.783000
O 9.392078 3.780330 13.012269 4.331947 -0.286406 -1.743252 1.000000 -21.566000
H 9.450563 3.485430 13.073316 1.332052 11.548408 3.164801 0.062500 10.783000
H 13.864522 3.701679 14.209700 -0.941533 -5.950756 4.352677 0.062500 10.783000
O 13.670801 3.450392 14.246957 -3.045219 -0.794192 2.293463 1.000000 -21.566000
H 13.416291 3.471296 14.455215 2.319031 -1.357689 4.522739 0.062500 10.783000
H 10.811523 9.298646 8.942847 -2.629028 1.599845 -1.320793 0.062500 10.783000
O 10.770974 9.240242 9.253987 4.496400 -0.361148 -4.602195 1.000000 -21.566000
H 11.021891 9.338864 9.431912 -1.716028 8.711997 -0.713930 0.062500 10.783000
H 11.966972 7.547208 10.419423 -5.820132 0.087157 -3.052241 0.062500 10.783000
O 12.148045 7.452802 10.171556 -0.916002 1.637539 5.147362 1.000000 -21.566000
H 12.142521 7.664690 9.915649 -5.637492 -6.566981 -4.772505 0.062500 10.783000
H 1.262927 4.863149 9.216684 -6.598007 -6.680252 7.603438 0.062500 10.783000
O 1.208683 4.621025 9.391343 -1.521425 -0.857227 2.236811 1.000000 -21.566000
H 0.897567 4.622673 9.470670 11.648343 11.111250 -0.794416 0.062500 10.783000
H 13.324333 8.801562 10.971217 13.265878 4.559136 7.423239 0.062500 10.783000
O 13.399868 9.072077 11.102797 -4.665750 1.986427 0.818585 1.000000 -21.566000
H 13.137375 9.212804 11.215650 -10.936328 -3.064207 -11.293206 0.062500 10.783000
H 4.722799 2.119265 12.958015 -4.560691 -0.556297 16.076782 0.062500 10.783000
O 4.910138 1.900246 13.118436 -2.373661 3.418512 0.065602 1.000000 -21.566000
H 4.750948 1.768966 13.382181 -5.008870 6.659313 1.613367 0.062500 10.783000
H 4.266602 7.321114 0.656275 6.591562 6.211255 4.746964 0.062500 10.783000
O 4.156086 7.482932 0.917535 -1.178177 -2.662440 -0.042831 1.000000 -21.566000
H 4.386382 7.471903 1.139382 5.279138 -10.405853 -13.060057 0.062500 10.783000
H 2.721519 3.297068 13.496097 8.943928 -7.718724 9.056979 0.062500 10.783000
O 2.749742 3.067548 13.277390 3.141008 1.318259 -2.720716 1.000000 -21.566000
H 2.800116 2.791685 13.431009 2.378304 -3.394537 -1.194584 0.062500 10.783000
H 1.475777 4.447547 10.585615 1.684867 -10.893661 7.961265 0.062500 10.783000
O 1.686778 4.252857 10.723009 1.393378 -0.421035 0.773686 1.000000 -21.566000
H 1.755674 4.362387 11.011499 -6.122620 6.318216 2.929050 0.062500 10.783000
H 6.601657 1.406831 12.112494 17.913867 -14.131671 10.791833 0.062500 10.783000
O 6.623543 1.133848 11.949130 0.918329 -4.645910 -1.941292 1.000000 -21.566000
H 6.536138 0.901097 12.170294 5.316503 -1.159987 5.438455 0.062500 10.783000
H 4.110595 13.477932 9.898440 -8.084491 2.291987 5.783150 0.062500 10.783000
O 3.936517 13.380372 10.133134 -2.299550 3.188145 -1.195934 1.000000 -21.566000
H 3.698888 13.588570 10.119342 9.238595 7.430781 -1.132791 0.062500 10.783000
H 5.715439 7.299954 2.551656 -5.261514 -8.225253 6.657840 0.062500 10.783000
O 5.911398 7.251296 2.786173 -1.175816 -4.023166 3.661836 1.000000 -21.566000
H 5.849075 6.967014 2.915504 4.890902 4.610706 5.074094 0.062500 10.783000
H 5.169592 14.564460 8.746427 5.552842 0.642380 -5.153849 0.062500 10.783000
O 4.998443 14.348337 8.596861 1.406580 1.322209 0.362983 1.000000 -21.566000
H 5.224308 14.221267 8.376953 2.399183 -9.449920 -10.676005 0.062500 10.783000
H 10.884574 7.189114 12.529799 -6.311116 1.763650 0.089969 0.062500 10.783000
O 10.726308 7.062079 12.768886 0.265701 -0.917725 1.544226 1.000000 -21.566000
H 10.946957 7.124242 13.004268 9.586480 14.209059 8.916933 0.062500 10.783000
H 11.457494 8.781930 10.777497 -0.024960 1.943399 -2.268986 0.062500 10.783000
O 11.351221 8.663352 10.486582 1.057233 -0.169267 4.627336 1.000000 -21.566000
H 11.036704 8.601523 10.470481 -5.294069 8.279742 -3.906930 0.062500 10.783000
H 10.874272 5.283942 9.888931 5.303735 -3.608609 9.217784 0.062500 10.783000
O 11.190163 5.291175 9.829570 2.603000 1.272728 0.161847 1.000000 -21.566000
H 11.304835 5.573534 9.900252 1.779289 1.441291 1.603561 0.062500 10.783000
H 9.150559 4.759657 1.630552 8.121914 -4.208345 0.019030 0.062500 10.783000
O 9.204374 4.580854 1.362429 0.809269 -0.072865 -3.286195 1.000000 -21.566000
H 9.027270 4.316286 1.411482 14.445941 1.609926 19.690005 0.062500 10.783000
H 13.710750 8.392572 6.062898 -8.591247 5.134089 -4.232647 0.062500 10.783000
O 13.837016 8.165887 5.863999 2.353590 -2.424892 5.865776 1.000000 -21.566000
H 13.674412 8.226657 5.585872 1.823562 -6.630206 -9.228190 0.062500 10.783000
H 1.812311 6.899580 9.933086 -4.742711 -17.747044 -12.874487 0.062500 10.783000
O 2.101583 6.820632 9.813201 0.609088 -1.393758 0.178225 1.000000 -21.566000
H 2.296811 6.883878 10.057318 5.001815 4.946372 3.088043 0.062500 10.783000
H 2.910508 7.004299 10.444031 6.874218 1.078737 -4.284954 0.062500 10.783000
O 2.627221 7.165794 10.470024 -2.380263 2.856959 1.212193 1.000000 -21.566000
H 2.697688 7.461543 10.586793 -10.678664 4.571846 -11.024158 0.062500 10.783000
H 12.222302 6.725641 10.709688 4.322973 -4.413280 4.319585 0.062500 10.783000
O 12.106658 6.456616 10.557974 -1.668619 -1.854447 0.418960 1.000000 -21.566000
H 12.263064 6.220179 10.724944 -8.584056 -1.007369 5.268879 0.062500 10.783000
H 1.980002 4.831210 11.332970 15.164002 -3.660435 -3.715704 0.062500 10.783000
O 1.827732 4.581786 11.489983 -1.564813 -0.997733 2.371462 1.000000 -21.566000
H 1.848784 4.661698 11.798653 -0.750595 15.413511 -4.415457 0.062500 10.783000
H 4.094732 4.121191 12.942353 8.334708 2.950656 2.702727 0.062500 10.783000
O 3.862381 3.916422 13.030170 0.965282 1.206191 0.943764 1.000000 -21.566000
H 3.796978 3.697801 12.809169 -13.220695 5.232532 1.634429 0.062500 10.783000
H 2.106569 6.573364 11.691489 0.739334 4.752283 8.079543 0.062500 10.783000
O 2.055768 6.284076 11.545152 -0.925383 0.452263 -2.224929 1.000000 -21.566000
H 1.813244 6.348447 11.344456 -6.306117 -6.464528 2.006915 0.062500 10.783000
H 2.687615 8.766439 13.934655 -0.683296 3.162248 -0.155512 0.062500 10.783000
O 2.695155 8.456353 13.914271 -3.748376 -2.230186 0.048581 1.000000 -21.566000
H 2.585922 8.271869 14.145683 -3.542945 -3.532093 -9.218241 0.062500 10.783000
H 3.564710 4.007176 14.537007 7.114384 4.546251 -6.502259 0.062500 10.783000
O 3.476972 3.903734 0.087198 1.355233 2.417036 -0.683235 1.000000 -21.566000
H 3.641978 3.619772 0.106254 -3.401450 3.247274 -4.473273 0.062500 10.783000
H 6.114948 6.140483 6.674167 9.044858 3.346300 -1.325044 0.062500 10.783000
O 6.160963 6.421447 6.525871 -2.930123 -1.139495 2.140995 1.000000 -21.566000
H 5.895333 6.494364 6.342760 -12.304092 7.373574 -2.331447 0.062500 10.783000
H 5.774389 8.830886 2.412980 5.578548 10.456475 -8.508662 0.062500 10.783000
O 5.581780 8.958969 2.196784 -0.161763 -0.815658 0.674741 1.000000 -21.566000
H 5.299564 9.030545 2.349450 2.522430 0.928240 -0.068116 0.062500 10.783000
H 10.475800 5.868880 12.872686 5.782023 2.871404 3.942080 0.062500 10.783000
O 10.330755 5.661090 12.680123 -3.563612 -1.336535 -0.052462 1.000000 -21.566000
H 10.536258 5.551226 12.429304 8.645436 2.839451 2.026679 0.062500 10.783000
H 7.877738 1.326406 13.899129 -5.394723 16.431420 3.406586 0.062500 10.783000
O 8.158341 1.173613 13.881729 -1.557103 0.426637 0.430837 1.000000 -21.566000
H 8.149378 0.949247 14.107396 2.802372 7.756930 9.517056 0.062500 10.783000
H 14.197884 9.965493 6.092058 -6.681677 -4.920443 -0.493057 0.062500 10.783000
O 13.964137 10.030097 6.297130 -0.239594 4.394787 2.013885 1.000000 -21.566000
H 13.693230 10.038574 6.113472 -4.879686 -1.805429 0.772493 0.062500 10.783000
H 1.452522 8.876054 10.360643 4.143588 7.200538 3.832869 0.062500 10.783000
O 1.608582 8.627570 10.210539 -1.932693 1.045689 -0.559020 1.000000 -21.566000
H 1.398201 8.524339 10.002610 -5.187827 3.061311 15.087093 0.062500 10.783000
H 9.072191 6.726112 6.000274 -5.529332 -2.701390 -3.389977 0.062500 10.783000
O 9.340560 6.560909 5.903911 -3.534697 1.167565 0.655493 1.000000 -21.566000
H 9.588343 6.775743 5.934059 4.759159 8.647905 8.039636 0.062500 10.783000
H 4.298379 3.146821 10.045310 -3.810864 -4.556969 -8.082766 0.062500 10.783000
O 4.224729 3.419396 9.900017 0.063187 -3.855344 2.802542 1.000000 -21.566000
H 3.937001 3.544604 10.000915 0.138497 -4.348926 14.728464 0.062500 10.783000
H 0.745785 6.700596 12.341689 0.507794 -3.068820 3.703694 0.062500 10.783000
O 0.700953 6.777446 12.031609 -0.130662 -3.465581 1.112035 1.000000 -21.566000
H 0.750405 6.517260 11.853351 -3.197932 -4.784989 -5.744971 0.062500 10.783000
H 3.195359 7.314511 9.301936 -1.803842 11.653191 1.631313 0.062500 10.783000
O 3.386937 7.336684 9.566968 -3.883074 2.136305 2.834874 1.000000 -21.566000
H 3.489825 7.635400 9.595877 2.870680 10.498556 -5.425761 0.062500 10.783000
H 1.901456 7.264315 11.862027 6.168571 2.923795 4.204637 0.062500 10.783000
O 2.184141 7.110587 11.904157 -0.877181 -3.599465 0.102282 1.000000 -21.566000
H 2.450043 7.279976 11.825568 4.520510 -5.390386 1.941103 0.062500 10.783000
H 4.922628 4.216166 8.166134 -9.989013 -9.553067 11.640085 0.062500 10.783000
O 4.682592 4.030840 8.055678 -1.963416 -1.553944 -2.002888 1.000000 -21.566000
H 4.423949 4.189742 8.085479 -4.430642 -6.061127 7.910251 0.062500 10.783000
H 5.198750 6.707728 6.238997 4.480152 -0.384763 -6.473873 0.062500 10.783000
O 5.345835 6.425105 6.287412 0.095765 -2.259125 3.348886 1.000000 -21.566000
H 5.399014 6.283177 6.021769 -16.291476 2.081624 3.562713 0.062500 10.783000
H 6.583781 10.665713 7.200766 -6.310157 3.938767 -1.491763 0.062500 10.783000
O 6.302389 10.560338 7.088715 0.416563 -0.603743 -2.660201 1.000000 -21.566000
H 6.353886 10.376000 6.814379 1.811641 -5.922083 4.570489 0.062500 10.783000
H 2.920576 10.797817 9.608236 1.622616 -0.160749 -1.949498 0.062500 10.783000
O 3.045820 10.570375 9.797623 -0.498788 -1.169960 -1.475145 1.000000 -21.566000
H 2.833318 10.444132 9.991149 1.060287 -9.907544 9.215842 0.062500 10.783000
H 7.694123 2.828114 12.473125 9.275434 1.468060 -9.259279 0.062500 10.783000
O 7.483714 3.002982 12.290541 -2.867920 -0.948218 2.016237 1.000000 -21.566000
H 7.206864 3.071917 12.452945 -2.499184 16.416811 -13.144445 0.062500 10.783000
H 8.268086 3.753734 6.121911 5.249560 13.718763 11.174913 0.062500 10.783000
O 8.345514 3.930622 5.886128 -2.846250 -0.340691 -1.691396 1.000000 -21.566000
H 8.664301 3.870291 5.867909 3.931508 3.053547 -6.210376 0.062500 10.783000
H 9.251934 7.641960 13.129792 -5.914410 -3.763975 13.864422 0.062500 10.783000
O 9.161978 7.935472 13.038345 1.028512 1.279157 1.299723 1.000000 -21.566000
H 8.858002 7.895960 13.132302 5.070429 6.868494 3.322971 0.062500 10.783000
H 8.548486 3.455475 10.493887 4.827127 -4.520574 0.399493 0.062500 10.783000
O 8.543241 3.165157 10.373089 0.986345 -1.305589 -2.588949 1.000000 -21.566000
H 8.275776 3.149115 10.182555 2.110402 -7.300436 -3.561174 0.062500 10.783000
H 10.497156 3.571313 11.448761 -7.451347 24.950972 -3.594813 0.062500 10.783000
O 10.365740 3.503585 11.746313 -1.786482 -3.189689 0.496443 1.000000 -21.566000
H 10.555993 3.672354 11.944324 3.825414 -7.134575 1.764447 0.062500 10.783000
H 13.770271 7.116593 8.533569 10.745366 -13.503338 -2.611945 0.062500 10.783000
O 13.902639 7.027536 8.806537 -4.637479 -1.134397 1.471610 1.000000 -21.566000
H 14.230713 7.048763 8.762412 7.252211 11.882740 -1.033537 0.062500 10.783000
H 11.480121 9.742211 9.147810 0.591155 -11.498733 -11.334655 0.062500 10.783000
O 11.685951 9.747894 8.896996 -0.558810 0.295499 0.525640 1.000000 -21.566000
H 11.611942 9.487579 8.719279 -2.829090 -3.199469 -9.098432 0.062500 10.783000
H 4.319952 5.844196 12.281536 -12.600571 1.789616 1.870451 0.062500 10.783000
O 4.378977 5.647004 12.521648 -0.029957 2.565402 0.016023 1.000000 -21.566000
H 4.631742 5.467697 12.431160 -15.535301 -7.990128 9.355364 0.062500 10.783000
H 0.782995 11.661919 8.668331 3.352195 -5.797181 3.073915 0.062500 10.783000
O 0.904133 11.548679 8.939083 1.983045 -0.203493 -0.368047 1.000000 -21.566000
H 1.172077 11.377639 8.883727 0.410448 -8.810104 7.513790 0.062500 10.783000
H 13.989986 9.135863 11.053980 -3.858387 7.934559 -14.259274 0.062500 10.783000
O 14.278548 9.228664 10.980263 -2.491490 -0.677467 -1.033471 1.000000 -21.566000
H 14.320974 9.151676 10.677623 -11.544593 3.189142 1.278852 0.062500 10.783000
H 4.625334 9.195363 6.802526 -8.466611 -5.986587 -3.330447 0.062500 10.783000
O 4.875334 8.990918 6.775947 2.189826 -1.843826 -1.572836 1.000000 -21.566000
H 4.967995 9.007627 6.465333 1.502578 2.876013 0.570955 0.062500 10.783000
H 4.470730 4.829719 9.278060 2.698781 21.988089 -5.175273 0.062500 10.783000
O 4.611810 4.772707 9.559461 -1.040292 -1.817511 0.814541 1.000000 -21.566000
H 4.666220 5.071337 9.666038 -0.605452 -3.190302 -6.230355 0.062500 10.783000
H 4.861538 13.775006 11.327583 1.471110 -9.583841 8.220421 0.062500 10.783000
O 4.722228 13.487051 11.296445 -0.220288 1.029185 -1.812104 1.000000 -21.566000
H 4.449236 13.497838 11.451527 -2.217583 -1.670844 1.907135 0.062500 10.783000
H 8.204600 7.343317 7.991328 7.032124 -7.882509 8.281584 0.062500 10.783000
O 8.018619 7.598625 7.966241 0.770392 -4.886465 2.625887 1.000000 -21.566000
H 7.923366 7.665392 7.668478 7.862020 -10.874580 -2.216998 0.062500 10.783000
H 5.718462 8.266842 11.204661 14.295441 -0.289511 -0.975192 0.062500 10.783000
O 5.802003 8.332017 11.501460 -1.398849 -0.008101 -1.902407 1.000000 -21.566000
H 5.521942 8.273826 11.662832 -1.657284 -13.037169 -1.334779 0.062500 10.783000
H 7.825559 9.137437 6.565632 8.590199 -1.904059 4.747172 0.062500 10.783000
O 8.059239 8.990915 6.407337 0.852424 -0.354215 -2.270650 1.000000 -21.566000
H 8.017835 9.032966 6.078847 12.838474 0.511079 -1.373148 0.062500 10.783000
H 5.815614 9.187769 11.945074 6.750402 4.336731 8.716276 0.062500 10.783000
O 5.986061 8.952018 12.099668 1.119451 -1.168658 -0.495267 1.000000 -21.566000
H 5.960673 8.701390 11.919596 10.038776 -6.963230 4.392116 0.062500 10.783000
H 8.321874 7.633841 13.415469 -5.627506 0.060058 2.357369 0.062500 10.783000
O 8.313416 7.292030 13.403973 -0.080434 -2.661986 -0.263387 1.000000 -21.566000
H 8.023425 7.185102 13.431127 2.989652 8.099848 3.610292 0.062500 10.783000
H 11.045157 6.794974 11.450844 -3.906656 3.545623 -9.414156 0.062500 10.783000
O 11.258077 6.548229 11.497212 -1.842770 2.445633 2.220229 1.000000 -21.566000
H 11.095246 6.259395 11.528183 -7.076417 -7.367462 -17.917052 0.062500 10.783000
H 13.267598 1.090450 3.652061 12.358186 2.399518 -0.092768 0.062500 10.783000
O 12.988070 1.090719 3.809821 2.233046 0.976555 -1.147134 1.000000 -21.566000
H 13.064714 1.162065 4.106085 11.800068 -7.269890 -2.943825 0.062500 10.783000
H 11.959409 9.004730 9.818367 2.129400 -3.394057 5.270240 0.062500 10.783000
O 11.656534 9.067016 9.741741 1.683377 -1.544596 -1.163908 1.000000 -21.566000
H 11.471385 8.905287 9.951120 3.503023 1.469970 11.027899 0.062500 10.783000
H 0.661950 7.601868 7.430219 -3.790162 -6.617574 4.344898 0.062500 10.783000
O 0.889398 7.409109 7.327020 0.583095 -5.867490 0.875992 1.000000 -21.566000
H 0.797268 7.284064 7.048890 7.528793 3.739555 -9.318031 0.062500 10.783000
H 14.699449 10.209687 10.256549 8.452229 -5.711915 -7.340101 0.062500 10.783000
O 0.280983 10.208606 10.214442 2.206427 0.884211 -0.802553 1.000000 -21.566000
H 0.322882 9.973915 9.982608 10.800366 7.992915 -12.724120 0.062500 10.783000
H 1.227737 10.445050 11.164157 -12.731216 -1.948986 8.360248 0.062500 10.783000
O 1.460932 10.434910 11.387168 -1.227955 -1.495196 1.779648 1.000000 -21.566000
H 1.436974 10.250709 11.638827 -0.714634 -1.965558 4.522429 0.062500 10.783000
H 4.090368 6.741343 8.910864 12.342036 5.125678 12.773130 0.062500 10.783000
O 4.059002 7.025428 9.063308 0.688607 -2.383661 0.360927 1.000000 -21.566000
H 3.835297 7.007856 9.286946 -1.108108 -6.906518 9.009716 0.062500 10.783000
H 6.951298 7.479348 9.405458 6.639845 -7.642829 -14.942647 0.062500 10.783000
O 7.199533 7.313867 9.544266 0.627415 -1.226111 -1.554659 1.000000 -21.566000
H 7.109669 7.215193 9.845996 4.748710 -1.682973 0.624485 0.062500 10.783000
H 3.497660 9.298601 10.266567 12.743303 13.610184 8.280000 0.062500 10.783000
O 3.756271 9.202155 10.419041 0.099691 -0.419418 -0.049976 1.000000 -21.566000
H 3.653224 8.981481 10.642251 -5.642328 8.069018 9.949815 0.062500 10.783000
H 6.961816 8.884577 10.390383 -0.808751 -2.417251 -2.811577 0.062500 10.783000
O 6.716749 9.108012 10.389495 0.937790 0.236055 -1.446087 1.000000 -21.566000
H 6.816805 9.395864 10.473726 3.485048 1.344824 -13.363567 0.062500 10.783000
H 6.460351 9.245624 9.808388 -2.510705 -6.752366 8.323587 0.062500 10.783000
O 6.405605 9.432742 9.548236 1.035998 -0.668940 4.145147 1.000000 -21.566000
H 6.522588 9.235159 9.324332 -4.916604 -5.707985 -0.214892 0.062500 10.783000
H 6.801889 4.991013 7.571952 1.478051 4.364021 13.838604 0.062500 10.783000
O 6.750750 4.705501 7.691917 1.994092 5.668784 2.331226 1.000000 -21.566000
H 6.440769 4.651119 7.670764 17.581828 5.156619 0.857278 0.062500 10.783000
H 5.413010 5.649682 10.290523 4.750227 -12.952475 -4.976443 0.062500 10.783000
O 5.339982 5.470325 10.551689 1.348968 -1.449449 3.539912 1.000000 -21.566000
H 5.030291 5.533198 10.602273 -2.473730 4.530150 2.375820 0.062500 10.783000
H 6.445309 6.940767 12.874990 4.478675 1.152194 4.071681 0.062500 10.783000
O 6.607281 6.697266 12.758874 0.195815 0.690248 1.790069 1.000000 -21.566000
H 6.571228 6.627973 12.451821 1.490814 7.580320 8.694683 0.062500 10.783000
H 5.020431 5.861349 9.458420 -10.084850 2.817850 -3.930550 0.062500 10.783000
O 5.107300 5.830712 9.767849 1.703668 -1.430735 -1.672331 1.000000 -21.566000
H 4.833056 5.804473 9.922439 8.363521 -11.461601 4.685080 0.062500 10.783000
H 7.915191 3.824577 11.960255 4.532589 7.560033 -6.070090 0.062500 10.783000
O 8.010866 3.608196 12.170134 1.167376 -1.443403 4.108238 1.000000 -21.566000
H 7.813130 3.346365 12.210301 -1.456290 9.854535 -1.155367 0.062500 10.783000
H 6.231445 8.023865 10.631598 -7.063642 13.766742 17.616234 0.062500 10.783000
O 5.909996 8.055493 10.611225 1.108087 1.145251 2.569294 1.000000 -21.566000
H 5.854883 8.072261 10.291420 9.795276 -8.748318 5.301630 0.062500 10.783000
H 6.835531 6.960542 8.086240 18.267112 -5.679874 3.724846 0.062500 10.783000
O 7.014875 6.938666 8.354486 1.010222 0.874529 0.166005 1.000000 -21.566000
H 7.138464 7.228108 8.401753 0.312568 -7.171009 11.575111 0.062500 10.783000
H 13.997687 10.019503 10.268702 13.291404 -13.364033 -15.455184 0.062500 10.783000
O 14.165745 10.235348 10.136672 -1.955080 -0.618427 1.045622 1.000000 -21.566000
H 14.220341 10.471993 10.341982 8.110132 -9.624522 -10.869379 0.062500 10.783000
H 13.382090 5.766936 5.400227 9.401200 2.087621 -9.826192 0.062500 10.783000
O 13.438198 5.986565 5.609762 0.046703 0.640432 0.979096 1.000000 -21.566000
H 13.250909 5.929368 5.856586 -0.482624 5.031849 6.306696 0.062500 10.783000
H 11.519311 7.740906 5.298812 -4.163874 18.688367 -10.028472 0.062500 10.783000
O 11.786349 7.666878 5.463869 -0.906094 2.252887 -1.234216 1.000000 -21.566000
H 11.968569 7.921228 5.465365 -6.599902 4.912391 -22.446490 0.062500 10.783000
H 2.114067 9.057347 13.187841 0.516357 -11.614586 -6.080849 0.062500 10.783000
O 2.311439 9.244770 13.371574 0.182451 -0.126475 1.661905 1.000000 -21.566000
H 2.383084 9.507870 13.199919 1.802074 -0.287184 -0.413519 0.062500 10.783000
H 6.347121 8.901778 5.512995 -13.232750 -1.598060 1.683249 0.062500 10.783000
O 6.109736 8.892723 5.716704 0.128919 0.217457 0.138285 1.000000 -21.566000
H 5.835946 8.922094 5.548765 -5.231289 -2.035111 -3.333066 0.062500 10.783000
H 7.275717 6.635400 5.541488 4.264226 -1.697788 6.812460 0.062500 10.783000
O 7.553526 6.662109 5.384271 -0.163621 4.060956 0.280336 1.000000 -21.566000
H 7.575157 6.413090 5.185362 -9.042606 -2.000593 -4.410200 0.062500 10.783000
H 7.776680 4.535364 7.941445 4.165412 6.618775 6.044173 0.062500 10.783000
O 7.651062 4.754081 7.738153 4.240833 -0.379438 0.759654 1.000000 -21.566000
H 7.334807 4.808815 7.811696 1.115498 14.276642 10.258259 0.062500 10.783000
H 6.760092 5.981083 3.211682 11.428148 -1.725041 19.751297 0.062500 10.783000
O 6.697260 6.291168 3.254020 1.888185 1.409098 0.845463 1.000000 -21.566000
H 6.843730 6.445761 3.025978 11.563540 -1.212405 10.912422 0.062500 10.783000
H 7.845790 11.712406 4.670668 -0.751860 2.942874 1.836627 0.062500 10.783000
O 8.044275 11.498220 4.792532 1.013541 -1.693553 -1.255701 1.000000 -21.566000
H 7.903842 11.278821 4.989698 1.564210 2.307271 10.406179 0.062500 10.783000
H 4.388688 11.660208 10.437837 -4.160470 16.824743 0.973297 0.062500 10.783000
O 4.615013 11.874376 10.450431 2.777245 -2.935058 -4.504078 1.000000 -21.566000
H 4.860874 11.786338 10.634279 2.214800 5.867944 -7.627074 0.062500 10.783000
H 7.127689 3.659795 9.744014 -4.523494 4.678289 -6.176353 0.062500 10.783000
O 7.432004 3.684437 9.628986 -0.865578 0.274792 3.042729 1.000000 -21.566000
H 7.619417 3.714328 9.893521 1.415957 2.114269 -5.216651 0.062500 10.783000
H 7.644598 8.438113 10.424337 -4.664447 -0.752118 3.153588 0.062500 10.783000
O 7.346809 8.515053 10.345208 1.263928 -0.477110 2.102472 1.000000 -21.566000
H 7.330611 8.529916 10.022413 15.667247 3.361871 3.494198 0.062500 10.783000
H 11.106801 11.745174 5.647467 -9.294390 -3.129763 0.170766 0.062500 10.783000
O 10.886288 11.860062 5.853634 -0.103290 -3.519966 0.833375 1.000000 -21.566000
H 10.605237 11.862113 5.691431 -1.315207 -4.411167 3.470801 0.062500 10.783000
H 8.260999 13.324792 5.148868 7.647132 2.684021 -15.358768 0.062500 10.783000
O 8.418732 13.050267 5.228561 -1.810129 -0.709635 -1.125361 1.000000 -21.566000
H 8.570297 12.962324 4.958036 10.988676 -0.836265 13.702955 0.062500 10.783000
H 12.948600 2.301492 7.805175 5.421827 -8.035483 0.228738 0.062500 10.783000
O 12.656724 2.251502 7.922148 0.557258 -3.374807 0.986119 1.000000 -21.566000
H 12.504500 2.525453 7.874055 -5.735764 -6.116915 4.615412 0.062500 10.783000
H 1.725070 13.450864 3.973788 -18.585690 -2.486237 6.696608 0.062500 10.783000
O 1.626189 13.178631 4.069250 -1.149340 3.441429 3.358664 1.000000 -21.566000
H 1.398672 13.108945 3.856460 6.916612 -4.366384 3.484245 0.062500 10.783000
H 12.582661 10.282121 9.360243 -3.842808 11.229656 -7.112558 0.062500 10.783000
O 12.625839 10.509215 9.586893 -5.153082 -1.798061 0.933938 1.000000 -21.566000
H 12.695071 10.409927 9.867551 -12.685135 4.740955 -4.022052 0.062500 10.783000
H 0.743384 7.955784 8.434506 2.364722 10.023160 -1.135820 0.062500 10.783000
O 0.437003 8.046062 8.449419 -1.142243 -0.034042 -0.737650 1.000000 -21.566000
H 0.368212 8.367473 8.466018 4.589928 12.618382 -8.514177 0.062500 10.783000
H 8.310145 6.626604 6.961928 -6.057411 -10.400420 -2.406742 0.062500 10.783000
O 8.265798 6.914197 6.829536 0.730537 -0.101167 0.915966 1.000000 -21.566000
H 8.556221 7.031697 6.775414 5.076241 -1.564337 2.242892 0.062500 10.783000
H 6.957508 9.166578 7.056467 -6.529909 -0.704854 -5.607556 0.062500 10.783000
O 7.131524 8.884963 7.019786 0.933950 1.422145 1.388116 1.000000 -21.566000
H 7.182542 8.822885 7.321718 -6.552870 9.550204 -2.756998 0.062500 10.783000
H 6.543423 5.555294 6.767255 -2.526560 -2.403065 6.869384 0.062500 10.783000
O 6.257361 5.618562 6.886427 0.895980 0.384597 -2.659620 1.000000 -21.566000
H 6.039561 5.489678 6.686783 -4.674612 16.759454 7.806911 0.062500 10.783000
H 4.910861 9.723624 9.940720 8.925674 -14.135554 -11.401008 0.062500 10.783000
O 5.129576 9.874561 10.119325 -0.253157 -0.488467 -1.935083 1.000000 -21.566000
H 5.402488 9.866693 9.973405 11.418348 -12.578934 0.086003 0.062500 10.783000
H 5.485346 10.350819 5.901502 -3.355762 3.825065 0.771281 0.062500 10.783000
O 5.273112 10.590355 5.952084 -1.799477 1.788403 1.756639 1.000000 -21.566000
H 5.376419 10.823691 5.735927 -3.637679 -8.746687 -5.434216 0.062500 10.783000
H 2.514603 12.851888 8.173379 5.942315 2.207749 2.770715 0.062500 10.783000
O 2.533503 12.929977 8.496118 2.287654 0.041879 0.401362 1.000000 -21.566000
H 2.634116 13.226041 8.555254 7.530204 -2.415780 12.598663 0.062500 10.783000
H 6.515580 5.915769 7.992509 0.848621 -6.226701 -1.725701 0.062500 10.783000
O 6.357183 6.079504 7.759417 0.544806 -1.305669 0.820057 1.000000 -21.566000
H 6.499941 6.003570 7.476929 -10.252151 -6.455118 -3.229875 0.062500 10.783000
H 11.544984 9.750281 11.128013 -10.644049 4.374358 1.801543 0.062500 10.783000
O 11.734942 9.600244 11.347121 -3.563387 -2.064001 -3.102396 1.000000 -21.566000
H 11.651981 9.301260 11.337565 -1.385887 2.899402 -0.846073 0.062500 10.783000
H 9.979350 8.846220 9.532104 1.044658 -12.228660 10.544559 0.062500 10.783000
O 10.228558 8.654239 9.441827 -1.929042 3.776454 -1.686112 1.000000 -21.566000
H 10.469689 8.860051 9.396257 2.304194 -6.066518 -8.617098 0.062500 10.783000
H 9.685652 10.636693 6.215399 -5.564645 3.045013 0.525786 0.062500 10.783000
O 9.499528 10.525626 6.454605 -3.909834 3.054452 1.017767 1.000000 -21.566000
H 9.667934 10.565332 6.718710 -9.556060 -2.126236 1.025424 0.062500 10.783000
H 14.030444 0.275262 6.370764 -1.069314 6.380785 -0.960330 0.062500 10.783000
O 13.922218 0.308837 6.068969 -3.591742 -2.015666 2.368212 1.000000 -21.566000
H 13.758608 0.063337 5.970322 -0.191061 -1.869423 -11.841329 0.062500 10.783000
H 8.886039 0.983459 4.803251 -3.689204 5.194781 1.249601 0.062500 10.783000
O 8.761916 0.737989 4.969898 -0.064203 -0.615930 -0.805819 1.000000 -21.566000
H 8.889585 0.479272 4.837126 -25.128719 -5.390254 9.236884 0.062500 10.783000
H 12.756746 1.856387 6.124678 -3.227487 11.847153 -3.142441 0.062500 10.783000
O 12.896102 1.927818 5.842382 -2.341354 -0.057562 -3.388313 1.000000 -21.566000
H 13.197578 1.990962 5.898162 -0.069458 10.201414 -15.433774 0.062500 10.783000
H 11.180388 2.373467 7.613833 0.177955 -0.502820 10.376015 0.062500 10.783000
O 11.401254 2.534867 7.775354 0.426179 -0.006218 -2.499872 1.000000 -21.566000
H 11.554615 2.755532 7.609761 -0.705560 5.308182 -0.997119 0.062500 10.783000
H 13.793961 9.060372 6.820333 -14.616615 10.420836 -5.478206 0.062500 10.783000
O 14.065280 9.231363 6.777522 -0.396917 3.676554 -2.514783 1.000000 -21.566000
H 14.007346 9.484276 6.600714 -0.864642 0.945671 -4.529183 0.062500 10.783000
H 13.656755 12.712528 5.141751 3.996527 10.310845 -0.951500 0.062500 10.783000
O 13.564072 12.464979 4.952928 -3.494369 0.292150 -1.754295 1.000000 -21.566000
H 13.558198 12.188550 5.112359 -1.483205 5.681645 8.092490 0.062500 10.783000
H 2.156960 11.808994 0.864237 -4.835056 2.160986 7.183925 0.062500 10.783000
O 2.357755 11.852852 1.096911 0.732911 -2.055099 2.840571 1.000000 -21.566000
H 2.189813 11.819439 1.377261 13.886097 -8.493808 18.744719 0.062500 10.783000
H 14.498291 0.299370 6.854750 4.167754 11.131389 9.107797 0.062500 10.783000
O 14.247730 0.095136 6.878073 -0.450722 0.206158 -0.572805 1.000000 -21.566000
H 14.368735 14.546611 6.972938 -3.337514 3.100696 4.276402 0.062500 10.783000
H 4.549189 12.749260 10.777940 8.545954 15.236532 -3.554734 0.062500 10.783000
O 4.236909 12.797037 10.719012 1.942605 -1.807314 1.189564 1.000000 -21.566000
H 4.138305 13.075245 10.583020 -2.283041 3.225131 -1.628421 0.062500 10.783000
H 11.338724 9.572288 14.535523 -7.690809 -3.604485 10.833830 0.062500 10.783000
O 11.535019 9.680708 0.020937 1.664923 -0.630354 1.845143 1.000000 -21.566000
H 11.812881 9.535107 0.059615 0.485055 17.258657 -2.654616 0.062500 10.783000
H 9.125706 11.099733 14.591242 -12.420185 3.058518 7.013286 0.062500 10.783000
O 9.180808 11.246522 0.139719 -1.573434 -1.950525 -1.301758 1.000000 -21.566000
H 9.345856 11.037523 0.324155 -4.988303 2.158231 18.775813 0.062500 10.783000
H 5.281442 1.014822 13.204219 2.292645 11.127783 -7.309617 0.062500 10.783000
O 5.474295 0.925429 12.967555 -0.037792 -1.320082 2.383725 1.000000 -21.566000
H 5.305279 1.030892 12.699318 6.294972 4.863249 2.248195 0.062500 10.783000
H 10.295716 9.819353 7.133498 -3.206856 4.555260 9.357829 0.062500 10.783000
O 10.425429 10.059235 6.958920 -1.105631 -0.188059 1.526858 1.000000 -21.566000
H 10.304689 10.341532 7.056941 -8.045922 9.102824 -3.338717 0.062500 10.783000
H 9.703491 2.314086 3.599853 -13.352490 1.514112 4.089156 0.062500 10.783000
O 9.602164 2.603440 3.662523 0.689117 -2.903434 1.313348 1.000000 -21.566000
H 9.798001 2.824230 3.530561 8.320676 -3.372036 20.232942 0.062500 10.783000
H 0.690356 4.124068 13.731829 -1.913285 -6.153823 -0.141231 0.062500 10.783000
O 0.658059 4.214744 14.046120 -0.792734 -0.497162 -0.974778 1.000000 -21.566000
H 0.926028 4.173536 14.206357 -1.670791 10.544930 -6.098353 0.062500 10.783000
H 13.037383 13.100028 1.974957 -10.635300 -6.908738 -29.264629 0.062500 10.783000
O 12.923361 13.400310 1.967180 0.204333 0.333268 0.084111 1.000000 -21.566000
H 13.163029 13.598543 1.980552 2.523036 3.432673 10.501166 0.062500 10.783000
H 14.186570 0.782176 9.574367 -0.432913 7.861748 9.642513 0.062500 10.783000
O 14.142362 1.099632 9.567446 2.558248 2.224951 -0.907814 1.000000 -21.566000
H 13.889659 1.149888 9.741376 2.154190 -10.287891 1.572817 0.062500 10.783000
H 12.610835 11.129690 8.006454 5.623159 2.301421 10.841941 0.062500 10.783000
O 12.897441 11.110303 7.854535 1.392090 -0.890728 -1.394346 1.000000 -21.566000
H 12.939981 10.832137 7.708886 -2.161975 -1.984227 2.144357 0.062500 10.783000
H 14.698236 0.189342 8.728157 3.730191 0.200152 6.167327 0.062500 10.783000
O 14.599110 0.507826 8.716360 0.758934 -0.587162 -0.627944 1.000000 -21.566000
H 14.485689 0.576384 8.430279 5.786630 5.189288 1.873439 0.062500 10.783000
H 8.883314 13.341624 10.044171 -3.027459 3.736258 -14.162546 0.062500 10.783000
O 8.884853 13.065519 10.224320 2.011573 -0.430891 -0.419308 1.000000 -21.566000
H 8.981766 13.170013 10.509111 5.621080 2.657417 1.532734 0.062500 10.783000
H 10.572731 14.600234 8.839895 -9.032188 -8.816933 1.559069 0.062500 10.783000
O 10.824042 14.420040 8.748383 -0.710262 0.561856 -2.171938 1.000000 -21.566000
H 10.728870 14.181175 8.561292 -2.047542 -6.333594 5.338452 0.062500 10.783000
H 2.413421 1.726442 13.007724 7.150599 -4.551105 -2.487846 0.062500 10.783000
O 2.358621 1.895131 12.732459 -3.547333 -0.016691 2.352662 1.000000 -21.566000
H 2.158122 1.722255 12.549101 5.879236 -6.021614 -0.501082 0.062500 10.783000
H 2.433583 12.893602 9.505915 6.049956 -18.448074 0.004800 0.062500 10.783000
O 2.209187 12.786013 9.292153 0.859110 1.501340 -1.725824 1.000000 -21.566000
H 2.321922 12.783078 8.983009 2.231196 -1.051181 -4.503924 0.062500 10.783000
H 5.117173 11.559570 4.430223 0.747843 5.891293 -5.435269 0.062500 10.783000
O 5.356268 11.349730 4.508830 5.180937 -0.527916 0.452253 1.000000 -21.566000
H 5.626632 11.492511 4.493009 3.960387 -12.508806 3.236045 0.062500 10.783000
H 1.181964 9.299017 3.625806 0.594032 10.066736 15.705428 0.062500 10.783000
O 1.394047 9.438732 3.431643 -0.520187 -2.304575 -0.741272 1.000000 -21.566000
H 1.455541 9.729258 3.568097 -2.618383 -3.519373 10.886892 0.062500 10.783000
H 0.629898 13.932834 10.518609 4.564945 -3.715321 -5.648027 0.062500 10.783000
O 0.803069 14.164038 10.643127 1.267247 -1.460821 1.688306 1.000000 -21.566000
H 0.616089 14.413975 10.545039 3.944236 6.290581 -7.871756 0.062500 10.783000
H 8.242717 12.893472 10.362267 8.517063 4.655237 4.091864 0.062500 10.783000
O 7.995672 12.798601 10.535078 -3.111634 2.916364 0.063491 1.000000 -21.566000
H 8.003286 12.478595 10.494604 9.662083 -1.257104 3.861711 0.062500 10.783000
H 8.585021 11.535621 13.465213 6.540725 -14.951950 -9.913543 0.062500 10.783000
O 8.581299 11.242367 13.567099 -1.078470 -0.422593 0.698981 1.000000 -21.566000
H 8.655931 11.110114 13.284820 -5.235762 -4.627771 4.149553 0.062500 10.783000
H 13.819537 14.143379 3.462988 2.540024 4.906559 -4.384433 0.062500 10.783000
O 14.129912 14.057229 3.401583 1.764918 1.619337 0.489402 1.000000 -21.566000
H 14.106797 13.884977 3.121969 -15.650837 3.268671 -6.850082 0.062500 10.783000
H 9.629898 11.373411 8.580138 -3.898595 -2.648060 19.460811 0.062500 10.783000
O 9.839901 11.521624 8.781139 -0.754167 -2.441232 0.647403 1.000000 -21.566000
H 10.114840 11.396454 8.735175 -0.414711 -0.191470 -3.660459 0.062500 10.783000
H 14.581417 12.373454 13.970897 9.679927 3.210637 8.494086 0.062500 10.783000
O 0.145079 12.296736 13.899650 5.432199 1.342138 -2.322087 1.000000 -21.566000
H 0.323267 12.555440 13.824963 2.084854 3.281218 0.865215 0.062500 10.783000
H 14.730009 1.295995 8.150507 3.818220 3.260328 6.505127 0.062500 10.783000
O 14.590088 1.486923 7.945360 -1.133529 -2.737288 -2.497267 1.000000 -21.566000
H 0.008338 1.781702 7.965451 -2.529584 -12.538667 4.797757 0.062500 10.783000
H 12.528156 5.061645 10.018222 -2.546775 -5.475413 11.013329 0.062500 10.783000
O 12.531524 4.830059 9.792358 -3.676212 -0.836804 -0.674967 1.000000 -21.566000
H 12.653504 4.952498 9.519749 -22.857157 13.827935 -2.290876 0.062500 10.783000
H 11.906147 3.085563 3.638910 -4.848486 2.635953 -7.485417 0.062500 10.783000
O 12.012110 2.885157 3.402729 -1.475932 2.607701 -1.794674 1.000000 -21.566000
H 11.793668 2.724188 3.219689 4.148412 -2.582620 3.893727 0.062500 10.783000
H 0.794673 0.611075 10.807756 4.173391 -12.778610 16.292752 0.062500 10.783000
O 1.036179 0.804359 10.810691 -1.727228 -0.027237 -1.537081 1.000000 -21.566000
H 1.303878 0.625895 10.771455 -4.886639 16.296746 4.920985 0.062500 10.783000
H 5.845766 12.084621 5.687420 -0.911899 5.715610 6.361108 0.062500 10.783000
O 5.672388 12.031789 5.955732 -0.616383 -1.003922 -0.747533 1.000000 -21.566000
H 5.368412 11.981659 5.872149 0.420894 8.477742 4.988514 0.062500 10.783000
H 4.863136 9.197545 14.086215 14.150657 -3.886487 0.476602 0.062500 10.783000
O 4.657653 8.998297 14.233531 1.165800 0.161966 1.719179 1.000000 -21.566000
H 4.376720 9.060013 14.103047 4.552312 -1.081162 7.228783 0.062500 10.783000
H 10.183969 13.171340 3.083941 0.862510 -3.780103 -0.250829 0.062500 10.783000
O 10.438669 13.330449 3.034719 0.580264 -0.990324 1.532704 1.000000 -21.566000
H 10.588837 13.378010 3.313654 -4.155356 1.209273 -4.915706 0.062500 10.783000
H 1.341482 0.036244 4.301903 -6.384477 -9.904539 12.670313 0.062500 10.783000
O 1.266153 0.265166 4.081266 0.602611 -1.296231 1.587861 1.000000 -21.566000
H 1.442104 0.215273 3.819082 -17.686975 -2.844396 -1.268327 0.062500 10.783000
H 5.859416 5.098471 12.483316 -10.053464 3.459870 21.379201 0.062500 10.783000
O 5.661226 4.857789 12.580557 -1.568015 -3.577716 5.384914 1.000000 -21.566000
H 5.372165 4.916836 12.443052 -3.626739 -6.286572 2.821762 0.062500 10.783000
H 11.212594 11.903335 8.944777 3.159078 0.079775 3.284394 0.062500 10.783000
O 11.182322 11.959438 9.262520 3.049953 -0.902419 0.528639 1.000000 -21.566000
H 11.367713 12.210865 9.360594 -7.701660 -5.596974 4.179020 0.062500 10.783000
H 5.973185 14.102085 10.217864 5.044241 12.856602 -3.850286 0.062500 10.783000
O 5.725243 14.013705 10.036910 0.359560 2.714021 1.437113 1.000000 -21.566000
H 5.462907 13.978928 10.221344 -16.385029 -1.165718 -7.716518 0.062500 10.783000
H 7.156660 1.054565 8.956460 8.519739 -10.224230 0.565669 0.062500 10.783000
O 6.943140 0.920170 8.769208 0.327147 0.188004 1.332761 1.000000 -21.566000
H 6.655309 1.006996 8.880953 8.396028 12.659040 6.879854 0.062500 10.783000
H 12.616414 14.701536 7.892505 7.301803 -12.153475 -6.472469 0.062500 10.783000
O 12.312884 14.622062 7.882628 2.843866 2.185200 1.189428 1.000000 -21.566000
H 12.114294 0.122587 7.786441 -6.477985 -11.783049 -13.899119 0.062500 10.783000
H 10.628741 14.045159 7.129992 8.178578 -3.640368 -11.983990 0.062500 10.783000
O 10.759214 14.326019 7.233941 -1.665923 1.306226 2.957320 1.000000 -21.566000
H 10.577756 14.470664 7.445843 6.130139 6.588705 -13.846154 0.062500 10.783000
H 10.918369 0.117456 11.220814 4.037341 -8.616612 12.066659 0.062500 10.783000
O 10.723143 0.305322 11.395926 0.364117 1.165009 -2.283658 1.000000 -21.566000
H 10.607588 0.129249 11.628092 7.689920 5.360577 -7.928496 0.062500 10.783000
H 13.921801 3.681762 10.533437 -6.875296 -4.068458 -0.564241 0.062500 10.783000
O 13.853391 3.374528 10.592393 2.512596 -1.212490 -0.204757 1.000000 -21.566000
H 13.536376 3.395349 10.684167 -4.159181 9.045182 -4.035828 0.062500 10.783000
H 14.474941 2.821693 8.890660 5.821679 3.413226 -2.355833 0.062500 10.783000
O 14.678865 2.577480 8.947207 -1.570908 0.121373 -0.447859 1.000000 -21.566000
H 14.541146 2.372761 9.154330 18.560690 -4.079802 -0.147737 0.062500 10.783000
H 3.167351 4.975333 2.480370 -0.022973 4.629663 11.381606 0.062500 10.783000
O 3.169764 4.662934 2.506446 0.458889 3.331426 -1.345286 1.000000 -21.566000
H 2.959679 4.519881 2.696437 -5.924444 -8.378083 -5.284577 0.062500 10.783000
H 0.593370 14.617661 5.625822 -8.097664 -3.989630 -2.689878 0.062500 10.783000
O 0.872224 0.050344 5.611154 3.249235 -3.808407 2.055592 1.000000 -21.566000
H 0.980813 0.122460 5.895280 -0.539952 1.470466 -5.845406 0.062500 10.783000
H 4.860030 3.422479 11.592558 12.368193 3.883161 3.336013 0.062500 10.783000
O 4.694853 3.540161 11.343505 -1.210714 -2.439306 0.214100 1.000000 -21.566000
H 4.855471 3.812241 11.266120 -6.928641 3.908886 -2.909669 0.062500 10.783000
H 4.267383 13.975554 8.315991 6.863286 -8.740620 -5.068517 0.062500 10.783000
O 4.249129 13.998949 8.632044 0.118957 -1.643553 -0.006668 1.000000 -21.566000
H 4.554412 14.034751 8.721959 7.500730 1.645230 -15.124143 0.062500 10.783000
H 1.564248 8.615850 11.588335 -3.964104 -5.652336 16.000990 0.062500 10.783000
O 1.344492 8.789303 11.754648 -1.993973 -2.451655 0.173582 1.000000 -21.566000
H 1.294118 8.597464 12.009423 -4.195147 2.717635 -5.304173 0.062500 10.783000
H 6.131514 6.951842 8.358617 10.162548 -2.996209 0.376650 0.062500 10.783000
O 5.979469 7.023102 8.643273 0.409237 -0.011096 0.466719 1.000000 -21.566000
H 5.931851 6.761948 8.831183 -1.618734 6.147438 -3.484606 0.062500 10.783000
H 8.207355 0.574882 7.083915 7.665861 15.210338 4.334590 0.062500 10.783000
O 7.947945 0.750134 7.023766 -2.078394 -2.014214 0.605422 1.000000 -21.566000
H 8.030504 0.988233 6.845076 5.217436 -13.816385 11.480102 0.062500 10.783000
H 9.646752 12.056103 8.691847 -2.735082 -1.496979 -4.640497 0.062500 10.783000
O 9.418120 12.286540 8.613346 -2.522772 -0.747827 -1.110288 1.000000 -21.566000
H 9.293943 12.229564 8.326754 0.032057 -11.780333 6.627094 0.062500 10.783000
H 9.495307 14.292152 8.067627 3.844596 11.579571 9.175927 0.062500 10.783000
O 9.616846 14.223937 7.767944 -1.772960 -2.836709 0.655577 1.000000 -21.566000
H 9.819168 13.989799 7.789733 -19.304275 -0.020836 -4.066115 0.062500 10.783000
H 9.711165 3.900942 8.114643 5.713651 -2.897604 -0.521074 0.062500 10.783000
O 9.686946 4.207553 8.166844 -1.811496 2.071565 0.901206 1.000000 -21.566000
H 9.687458 4.326032 7.849719 10.681991 3.756373 0.553742 0.062500 10.783000
H 6.635546 0.753485 3.922714 22.586931 0.953073 3.603693 0.062500 10.783000
O 6.660695 0.573385 4.195341 1.158681 1.404045 -2.249048 1.000000 -21.566000
H 6.502315 0.294480 4.188090 7.055598 -8.119247 -8.405889 0.062500 10.783000
H 3.171365 1.791303 8.246774 -1.130998 0.424701 -4.426482 0.062500 10.783000
O 3.323963 1.780161 8.530426 -4.577292 -0.855175 -0.319895 1.000000 -21.566000
H 3.449781 2.063488 8.554650 -2.116932 -5.283364 -4.698043 0.062500 10.783000
H 12.937202 4.409159 10.487664 -3.112672 -6.140017 1.238743 0.062500 10.783000
O 13.069875 4.693227 10.458681 2.406877 1.635238 -4.530525 1.000000 -21.566000
H 13.073088 4.726986 10.131223 -8.985630 2.611975 -1.155066 0.062500 10.783000
H 13.857632 4.396904 10.627342 -4.446989 -4.344377 6.631747 0.062500 10.783000
O 13.941460 4.191125 10.390254 1.817835 -3.069327 -1.752412 1.000000 -21.566000
H 14.163173 4.322795 10.203196 3.782725 -0.402303 1.820962 0.062500 10.783000
H 13.212134 3.318613 9.237497 0.280322 -5.985087 -1.212218 0.062500 10.783000
O 13.421843 3.084113 9.330871 0.760701 -1.231725 0.726050 1.000000 -21.566000
H 13.345680 2.835719 9.137278 -3.388052 8.022432 -15.950891 0.062500 10.783000
H 13.546932 12.010878 8.765152 -9.841171 -6.322780 4.962580 0.062500 10.783000
O 13.682721 11.811223 8.966277 2.267199 -5.055459 -0.212976 1.000000 -21.566000
H 14.001033 11.739541 8.907191 15.623620 9.808209 2.798013 0.062500 10.783000
H 12.845508 3.060601 10.899937 -4.826365 6.632162 -9.439076 0.062500 10.783000
O 12.890985 3.174597 10.615739 4.226026 2.117971 -3.291240 1.000000 -21.566000
H 12.868488 2.926426 10.411912 7.488367 1.882564 -12.727726 0.062500 10.783000
H 14.180838 0.085257 10.918398 -13.772492 8.969232 -6.199320 0.062500 10.783000
O 14.379872 0.010791 10.674777 -0.562802 -2.039844 1.914365 1.000000 -21.566000
H 14.461409 14.431729 10.681271 10.480141 -0.729613 -4.118519 0.062500 10.783000
H 4.960596 1.120323 9.302173 0.186330 18.932425 -0.517582 0.062500 10.783000
O 5.154710 1.240652 9.525503 4.022193 4.267908 -2.249977 1.000000 -21.566000
H 5.400364 1.045711 9.594414 6.501390 -3.112728 -16.928860 0.062500 10.783000
H 1.433866 1.173269 13.253974 12.331311 -6.491101 -3.239555 0.062500 10.783000
O 1.367685 1.277375 12.955696 4.778890 -1.337539 -2.558300 1.000000 -21.566000
H 1.251365 1.586803 12.916255 15.595767 3.756805 4.318966 0.062500 10.783000
H 4.418288 6.096797 10.646573 -5.567600 -9.235930 -5.932406 0.062500 10.783000
O 4.557262 5.862187 10.456637 -0.605284 0.182771 0.331069 1.000000 -21.566000
H 4.332351 5.641281 10.461535 3.340615 -3.260969 4.675531 0.062500 10.783000
H 3.077303 6.947951 12.252809 -12.635996 -14.341283 -2.658331 0.062500 10.783000
O 2.940709 7.190501 12.415499 0.141738 -0.018764 -2.369549 1.000000 -21.566000
H 3.125780 7.192922 12.680564 10.389806 -23.483285 -5.981460 0.062500 10.783000
H 6.767583 1.003524 8.240564 -10.724585 5.939004 2.113981 0.062500 10.783000
O 6.540871 1.114099 8.038287 1.476515 -1.110514 -0.990100 1.000000 -21.566000
H 6.433628 1.356025 8.210004 5.475755 -7.696723 19.498860 0.062500 10.783000
H 4.920059 2.195228 9.563095 5.584422 -16.702994 -5.251792 0.062500 10.783000
O 5.208374 2.130138 9.425115 2.025466 -3.733550 -0.891016 1.000000 -21.566000
H 5.233597 1.810379 9.473998 -5.680192 1.119136 3.491977 0.062500 10.783000
H 7.142492 4.818068 9.283046 -9.862727 6.143324 -4.632597 0.062500 10.783000
O 6.861270 4.669624 9.279785 -0.162939 2.319702 -4.505968 1.000000 -21.566000
H 6.841190 4.403486 9.117736 12.945574 10.697703 1.095602 0.062500 10.783000
H 9.117906 1.802230 10.103522 -3.989855 18.129048 0.955421 0.062500 10.783000
O 9.193453 1.757035 10.414519 -0.151650 -4.254600 0.548362 1.000000 -21.566000
H 9.256218 2.051947 10.512913 1.445331 -7.598904 -0.832212 0.062500 10.783000
H 10.429627 1.360008 9.364725 -12.992282 -12.215755 4.726219 0.062500 10.783000
O 10.722485 1.225238 9.354730 -0.208499 4.713113 2.429021 1.000000 -21.566000
H 10.904558 1.386788 9.157092 5.540863 -0.524354 6.418330 0.062500 10.783000
H 8.459760 3.807788 12.382802 5.427559 9.465600 12.875313 0.062500 10.783000
O 8.771225 3.894217 12.443105 2.570694 2.083924 1.137679 1.000000 -21.566000
H 8.851014 4.152010 12.271540 -8.730587 1.335008 -12.064905 0.062500 10.783000
H 0.626976 14.188467 9.621936 7.928926 -9.576600 7.394804 0.062500 10.783000
O 0.341412 14.337461 9.692146 0.673332 1.284551 0.082303 1.000000 -21.566000
H 0.073968 14.159772 9.650137 4.089052 7.998359 12.279875 0.062500 10.783000
H 2.256065 6.159195 9.745167 -1.479947 -4.372304 2.400767 0.062500 10.783000
O 2.363835 5.939965 9.936284 -1.778227 1.265411 -3.969169 1.000000 -21.566000
H 2.346864 5.644972 9.811728 -2.872443 -3.833651 -8.227091 0.062500 10.783000
H 0.756019 12.173346 9.701039 1.835630 -1.548515 10.864468 0.062500 10.783000
O 0.965512 12.400779 9.615113 3.055841 3.646302 -1.208927 1.000000 -21.566000
H 1.112305 12.508567 9.870526 2.059490 8.174786 -0.824710 0.062500 10.783000
H 2.270291 14.188359 7.805751 -5.933726 -6.110598 -9.909888 0.062500 10.783000
O 2.354903 13.888241 7.877260 -0.805936 1.589504 -2.447528 1.000000 -21.566000
H 2.543470 13.767917 7.668571 -4.067804 6.796563 9.980045 0.062500 10.783000
H 3.413354 3.158228 11.198727 10.816771 6.864900 2.659506 0.062500 10.783000
O 3.443120 3.086393 11.511682 0.034879 0.276970 1.932579 1.000000 -21.566000
H 3.179465 2.942797 11.591970 4.964439 1.361099 -6.214304 0.062500 10.783000
H 6.735421 3.335643 13.115456 5.073590 -0.493797 14.510567 0.062500 10.783000
O 6.565814 3.104483 13.251811 2.233608 0.281850 1.954999 1.000000 -21.566000
H 6.423732 2.899612 13.047917 4.184540 8.116919 12.972409 0.062500 10.783000
H 2.800039 1.678928 10.173100 3.071849 -3.362807 6.410496 0.062500 10.783000
O 2.663908 1.436834 10.025761 -5.324602 0.866279 -1.008411 1.000000 -21.566000
H 2.353224 1.529737 10.005616 -1.503270 -2.283440 6.780007 0.062500 10.783000
H 5.006803 6.929341 12.768366 -4.643946 10.297041 -3.393940 0.062500 10.783000
O 4.703500 6.928541 12.815788 1.840885 -0.365939 0.854714 1.000000 -21.566000
H 4.595518 7.055400 12.560553 11.231660 -6.925616 -0.665333 0.062500 10.783000
H 2.701342 4.436040 10.339605 16.840673 -0.771206 0.849547 0.062500 10.783000
O 2.422411 4.595527 10.344579 1.334766 -0.168004 -0.987592 1.000000 -21.566000
H 2.201969 4.373517 10.416814 -10.073992 5.463439 -8.582687 0.062500 10.783000
H 5.594784 4.103119 11.156122 -9.790866 -16.045554 -0.512315 0.062500 10.783000
O 5.530469 3.933071 10.890473 -0.173862 -2.018402 0.471273 1.000000 -21.566000
H 5.502917 4.156468 10.666487 -1.316529 -3.183848 12.260991 0.062500 10.783000
H 8.974862 2.106079 8.020287 20.509430 10.036412 -1.667178 0.062500 10.783000
O 8.950633 2.322834 8.259778 2.513743 4.353403 0.677507 1.000000 -21.566000
H 9.193369 2.292502 8.449951 3.732353 5.789178 -7.755721 0.062500 10.783000
H 8.307382 1.423426 8.857228 3.435290 -9.683386 -7.260032 0.062500 10.783000
O 8.179243 1.151342 8.992953 -2.808374 0.967713 -0.893592 1.000000 -21.566000
H 7.894277 1.198698 9.134452 -5.738615 -11.499261 12.244704 0.062500 10.783000
H 12.110113 5.968475 13.897646 4.899797 -6.272659 -5.552478 0.062500 10.783000
O 11.905628 5.740285 13.974359 3.345085 3.648229 -2.854378 1.000000 -21.566000
H 11.665898 5.806202 14.166972 -5.150444 -15.812366 -9.044671 0.062500 10.783000
H 10.628212 2.707322 10.827717 17.095675 -7.355650 -0.075721 0.062500 10.783000
O 10.867574 2.918902 10.745869 0.353485 0.353288 0.314451 1.000000 -21.566000
H 11.022986 2.757836 10.528052 -1.852112 -2.351274 12.341846 0.062500 10.783000
H 10.634665 2.158385 11.425067 -16.771067 11.091263 12.075756 0.062500 10.783000
O 10.914898 1.995405 11.397622 -1.207564 2.261981 0.547964 1.000000 -21.566000
H 10.964212 1.808515 11.642510 7.360993 -5.900328 -10.369025 0.062500 10.783000
H 4.351229 2.238682 8.782109 -12.900508 4.503165 -11.950388 0.062500 10.783000
O 4.352359 2.539192 8.909874 -0.892512 -0.035997 -1.641311 1.000000 -21.566000
H 4.391056 2.566853 9.231050 7.178186 9.651304 -2.658900 0.062500 10.783000
H 3.993509 13.279525 12.002851 8.313945 1.127989 -0.124464 0.062500 10.783000
O 3.955340 13.484727 11.776311 -3.068740 -1.054602 -1.545412 1.000000 -21.566000
H 3.651263 13.592872 11.783975 1.444420 -0.831950 -0.753609 0.062500 10.783000
H 14.372241 7.736081 10.261150 -2.199923 5.297868 -1.726632 0.062500 10.783000
O 14.191347 7.483400 10.177643 0.940505 -0.021609 -0.299696 1.000000 -21.566000
H 14.078212 7.392429 10.467256 -10.746584 -2.095609 2.697634 0.062500 10.783000
H 13.572233 8.446469 10.071527 -14.859025 -5.467855 -7.352298 0.062500 10.783000
O 13.747277 8.472719 9.799594 -0.552007 1.702126 0.344556 1.000000 -21.566000
H 13.557778 8.450824 9.533771 -1.105987 1.675805 -10.491690 0.062500 10.783000
H 3.955319 4.110216 11.946519 -3.476664 13.681349 -2.838669 0.062500 10.783000
O 4.001196 4.398197 11.812814 2.963563 -0.254925 1.080968 1.000000 -21.566000
H 3.721218 4.543459 11.774142 1.021739 0.893084 -1.514668 0.062500 10.783000
H 0.685586 5.075350 13.019737 11.396023 -1.974586 1.357607 0.062500 10.783000
O 0.600693 5.056159 12.702736 1.672201 3.873251 1.670852 1.000000 -21.566000
H 0.704634 5.315674 12.535562 -9.181345 -0.956927 -4.943288 0.062500 10.783000
H 6.976541 5.815077 14.636857 0.251116 -4.260554 15.752989 0.062500 10.783000
O 6.733970 5.594508 14.609417 1.470109 0.121891 0.918445 1.000000 -21.566000
H 6.696021 5.569455 14.286464 -8.782393 13.077420 4.909996 0.062500 10.783000
H 4.027188 4.112942 7.125601 9.946954 -8.055207 -7.248175 0.062500 10.783000
O 4.033841 3.804585 7.222970 -3.732092 -0.947624 -2.158730 1.000000 -21.566000
H 4.293831 3.648140 7.102851 11.901948 12.927660 -3.422749 0.062500 10.783000
H 6.748043 4.675890 12.164913 11.737266 -9.092768 -11.176509 0.062500 10.783000
O 6.783456 4.426092 12.349291 1.983608 -0.907855 1.894841 1.000000 -21.566000
H 6.501989 4.286465 12.388664 3.715739 2.580901 15.484722 0.062500 10.783000
H 6.764982 13.451267 0.912727 -3.657871 -0.410356 -17.559884 0.062500 10.783000
O 7.057620 13.542561 0.804448 -2.949835 1.617408 1.781785 1.000000 -21.566000
H 7.027371 13.830332 0.663606 -2.934672 -0.320805 -4.892310 0.062500 10.783000
H 8.453675 7.903732 5.368302 11.427251 -1.875227 -3.290151 0.062500 10.783000
O 8.186606 8.057893 5.265197 2.188472 -0.070207 2.068674 1.000000 -21.566000
H 8.157107 8.350154 5.389333 -0.012212 7.827916 0.738516 0.062500 10.783000
H 6.139685 1.470723 3.119698 -14.345682 0.811620 -7.691746 0.062500 10.783000
O 6.001057 1.311680 3.362818 -0.915823 3.954107 -1.020491 1.000000 -21.566000
H 5.732248 1.470580 3.453005 -9.211771 -14.061400 -0.807392 0.062500 10.783000
H 6.730856 6.037423 10.418517 -11.761063 6.487979 16.545070 0.062500 10.783000
O 6.516577 5.803018 10.392805 1.066099 -1.868641 1.965001 1.000000 -21.566000
H 6.407419 5.779540 10.100836 1.569968 0.689807 4.058868 0.062500 10.783000
H 13.457101 9.400032 8.919372 10.290845 0.505555 -0.942720 0.062500 10.783000
O 13.379167 9.669895 8.777809 -0.426010 2.006713 -0.290068 1.000000 -21.566000
H 13.117908 9.814321 8.905269 5.229397 -9.188821 11.505867 0.062500 10.783000
H 12.804793 9.421056 9.725752 7.680788 -20.766404 2.665960 0.062500 10.783000
O 12.552103 9.217598 9.754513 4.307247 -2.046401 0.602603 1.000000 -21.566000
H 12.505005 9.011284 9.504807 5.879413 -11.440682 6.504743 0.062500 10.783000
H 9.729270 5.654020 10.339872 -10.656094 8.891413 -0.604064 0.062500 10.783000
O 9.525238 5.780446 10.535474 1.278655 0.139857 2.126668 1.000000 -21.566000
H 9.368946 5.533842 10.669512 -2.688822 -4.754075 2.521379 0.062500 10.783000
H 12.221482 7.384765 8.720230 4.682065 -10.022921 -5.769951 0.062500 10.783000
O 12.178137 7.103100 8.853344 -0.885656 0.278497 -1.958941 1.000000 -21.566000
H 11.879465 7.003775 8.757676 -2.390103 -13.725622 11.608222 0.062500 10.783000
H 13.939220 5.188547 10.591995 -9.454164 7.079966 1.360739 0.062500 10.783000
O 14.093059 5.139453 10.315982 -5.022589 -2.235330 0.493956 1.000000 -21.566000
H 13.925904 5.322483 10.102131 0.815796 -5.743646 0.389676 0.062500 10.783000
H 14.105218 7.852675 6.581284 6.908071 -5.302405 -4.799400 0.062500 10.783000
O 13.915310 7.614910 6.715624 2.074187 -2.230035 -0.592245 1.000000 -21.566000
H 14.023702 7.548873 7.014881 -15.681723 13.449456 13.369070 0.062500 10.783000
H 1.386897 5.796530 10.267398 -1.474750 8.587695 10.014216 0.062500 10.783000
O 1.593202 5.978685 10.415810 2.385424 -1.794269 0.682079 1.000000 -21.566000
H 1.880802 5.858968 10.366250 8.249128 9.763409 0.839726 0.062500 10.783000
H 1.014901 7.225981 10.745429 10.305691 -17.752059 12.898807 0.062500 10.783000
O 1.336291 7.291640 10.690149 1.007631 -1.044011 1.206240 1.000000 -21.566000
H 1.481622 7.010613 10.775514 -0.713190 -5.221418 8.249801 0.062500 10.783000
H 2.941169 3.329864 8.510692 -4.490782 -2.024794 0.064238 0.062500 10.783000
O 2.636070 3.213487 8.460832 5.049179 2.679238 0.399264 1.000000 -21.566000
H 2.580636 3.181553 8.139772 -10.408432 -3.918743 0.624995 0.062500 10.783000
H 1.919204 1.924862 13.574252 -2.032403 4.600557 5.310641 0.062500 10.783000
O 2.017992 1.623652 13.655943 3.860717 -2.172649 -3.021883 1.000000 -21.566000
H 1.787910 1.427720 13.719084 6.994823 10.933694 -5.200331 0.062500 10.783000
H 3.257171 7.150375 13.366014 4.383288 -0.442292 -8.185875 0.062500 10.783000
O 3.399065 7.038919 13.089533 1.314294 -4.100796 -1.369074 1.000000 -21.566000
H 3.711607 7.008993 13.152096 -2.533642 -16.539252 1.897779 0.062500 10.783000
H 4.865566 0.245511 11.224541 4.593376 -6.088231 0.857917 0.062500 10.783000
O 4.804763 0.524817 11.356987 0.135717 -0.980368 2.150752 1.000000 -21.566000
H 4.561044 0.454715 11.556877 0.441693 2.087524 8.774092 0.062500 10.783000
H 5.009937 1.597214 12.535832 6.412800 1.544367 -3.621996 0.062500 10.783000
O 5.048748 1.320147 12.373133 -3.736799 1.960549 2.617275 1.000000 -21.566000
H 4.839942 1.310907 12.120430 2.584196 -10.233388 -1.963711 0.062500 10.783000
H 8.537674 4.077496 0.979148 -8.910308 15.289715 -5.561831 0.062500 10.783000
O 8.434868 4.088684 0.660906 -0.160402 2.028787 0.068186 1.000000 -21.566000
H 8.604807 4.286387 0.475925 -10.458175 -1.925327 -11.607510 0.062500 10.783000
H 11.943569 6.712716 12.746474 -0.587989 14.330112 -12.834988 0.062500 10.783000
O 12.128937 6.906237 12.927757 -1.016414 -2.288795 -2.381441 1.000000 -21.566000
H 12.376022 6.721921 13.015565 6.013045 7.771905 -8.598433 0.062500 10.783000
H 14.595375 9.484235 12.308321 -3.142968 2.825501 -1.942021 0.062500 10.783000
O 14.674502 9.165291 12.339771 -1.645365 -0.847759 -2.781704 1.000000 -21.566000
H 14.737929 9.042772 12.044485 -0.051280 -10.053256 -2.152751 0.062500 10.783000
H 10.722457 5.689901 11.217405 9.730766 0.026381 0.533557 0.062500 10.783000
O 10.489449 5.494786 11.294178 0.580705 1.325885 0.546402 1.000000 -21.566000
H 10.404900 5.315746 11.033865 -2.059887 14.084852 -1.373166 0.062500 10.783000
H 3.547190 2.772931 7.611202 -2.134185 -7.187718 -5.824196 0.062500 10.783000
O 3.386922 2.499278 7.552703 2.439355 -1.589351 2.140892 1.000000 -21.566000
H 3.569165 2.288665 7.404762 -4.616590 -4.648255 -5.917268 0.062500 10.783000
H 12.946945 2.201544 14.364801 2.961181 19.571821 -0.222391 0.062500 10.783000
O 12.701864 2.251777 14.148599 3.013487 0.611264 -1.982239 1.000000 -21.566000
H 12.786116 2.528894 14.015800 -1.677578 -6.899773 12.412721 0.062500 10.783000
H 1.383884 13.699441 7.678413 3.133694 11.257793 5.369111 0.062500 10.783000
O 1.223897 13.949624 7.541505 0.440316 0.104484 -1.394768 1.000000 -21.566000
H 1.121755 13.899823 7.238111 3.318095 1.765532 -1.993822 0.062500 10.783000
H 0.732224 2.864652 13.447691 -4.664092 9.312473 -12.819086 0.062500 10.783000
O 0.974014 3.041022 13.577645 2.017115 -3.538233 -1.463379 1.000000 -21.566000
H 0.836812 3.164866 13.847242 7.133480 -10.206715 6.093506 0.062500 10.783000
H 2.589917 1.739737 7.753883 -5.709624 -0.516802 -7.345639 0.062500 10.783000
O 2.871375 1.593721 7.772496 0.720675 -0.822112 1.995757 1.000000 -21.566000
H 3.024518 1.586686 7.491462 -2.536598 -11.393368 1.166472 0.062500 10.783000
H 3.920100 0.001985 0.189287 4.667149 10.646682 6.126612 0.062500 10.783000
O 3.801570 14.727045 0.489011 2.056535 1.088351 -0.685473 1.000000 -21.566000
H 4.031390 0.096150 0.705571 7.566909 7.956956 2.923118 0.062500 10.783000
H 1.339766 6.119259 14.496825 3.677817 -1.150018 -3.434545 0.062500 10.783000
O 1.345264 6.153827 0.077156 2.793631 -0.390546 3.206802 1.000000 -21.566000
H 1.612349 6.083152 0.236771 -4.751462 -3.700021 19.135470 0.062500 10.783000
H 5.103667 11.061641 3.064760 0.004199 3.314670 -7.590496 0.062500 10.783000
O 5.376731 11.026424 2.904032 2.068137 0.368660 1.066462 1.000000 -21.566000
H 5.525973 11.299403 2.975917 -0.862930 -4.683939 7.051464 0.062500 10.783000
H 2.704069 7.530258 0.833770 -8.406780 -5.534959 -1.207753 0.062500 10.783000
O 2.427664 7.683575 0.872401 1.363585 5.062299 -0.072494 1.000000 -21.566000
H 2.410543 7.880752 0.634933 -1.436656 -1.586694 -1.033620 0.062500 10.783000
H 7.863121 5.261585 14.480299 4.028074 -0.695513 -7.120066 0.062500 10.783000
O 7.970308 5.089064 14.722160 -2.856343 0.294705 1.524501 1.000000 -21.566000
H 7.927424 4.770359 14.661107 15.925287 -1.998364 0.235146 0.062500 10.783000
H 5.531436 3.382221 0.450542 -3.462323 0.049176 0.932531 0.062500 10.783000
O 5.681465 3.414942 0.730368 -5.345303 -1.684350 1.614547 1.000000 -21.566000
H 5.979009 3.524035 0.672788 -4.660814 -6.532208 5.110667 0.062500 10.783000
H 6.893997 7.177519 10.593315 -0.308294 -7.522883 1.978120 0.062500 10.783000
O 6.806810 7.057341 10.310137 0.804669 -1.349985 1.564389 1.000000 -21.566000
H 6.947290 6.760317 10.269432 12.772351 2.280951 4.748740 0.062500 10.783000
H 9.199173 0.117173 12.200352 -4.497275 -1.946461 6.716538 0.062500 10.783000
O 9.170501 0.385278 12.383782 0.025564 -2.414982 4.093239 1.000000 -21.566000
H 9.430378 0.580224 12.385636 -4.380562 -1.083338 4.460555 0.062500 10.783000
H 11.247230 10.324394 13.640498 -18.937047 0.060080 -0.517256 0.062500 10.783000
O 11.189892 10.320032 13.324820 0.533877 0.898331 1.007560 1.000000 -21.566000
H 11.342353 10.589436 13.234006 -3.695218 -16.288272 -7.903906 0.062500 10.783000
H 8.716964 5.571968 11.659320 -6.717135 7.341469 0.135280 0.062500 10.783000
O 8.505305 5.328532 11.582734 0.709534 -0.397898 0.607086 1.000000 -21.566000
H 8.300523 5.349991 11.832606 -7.321227 10.608931 1.090898 0.062500 10.783000
H 13.038238 9.971519 5.775416 4.361672 0.350538 -8.495993 0.062500 10.783000
O 13.075691 10.116349 6.069927 -1.409010 -3.650802 -3.577787 1.000000 -21.566000
H 12.841198 10.051116 6.291154 -14.590626 0.235952 -4.876102 0.062500 10.783000
H 1.569050 1.712222 10.071961 -0.289122 -10.566550 -5.105791 0.062500 10.783000
O 1.745515 1.626190 9.821235 1.796538 -2.749860 -1.083819 1.000000 -21.566000
H 1.577025 1.399105 9.673495 5.918429 8.058935 -2.230708 0.062500 10.783000
H 1.059194 2.585062 9.342010 10.706145 -4.878769 12.207656 0.062500 10.783000
O 1.319162 2.662722 9.179736 1.977708 2.483850 2.761638 1.000000 -21.566000
H 1.573631 2.480096 9.215588 -1.491837 -5.251892 11.435346 0.062500 10.783000
H 1.221096 4.641789 10.036203 -7.920938 -0.499205 -11.773708 0.062500 10.783000
O 1.122100 4.705165 10.336939 3.694582 0.499835 -1.396424 1.000000 -21.566000
H 1.018045 5.002991 10.304981 -16.857011 10.190087 2.353753 0.062500 10.783000
H 4.276991 8.828093 1.370354 16.054044 0.172572 -0.185220 0.062500 10.783000
O 4.517142 8.912143 1.572672 3.037942 1.029683 -0.330643 1.000000 -21.566000
H 4.398784 9.016064 1.865140 4.465712 0.633271 7.117061 0.062500 10.783000
H 5.160621 6.457972 10.806938 1.691167 -0.968025 -0.936328 0.062500 10.783000
O 5.180841 6.508147 11.132742 2.824130 2.185862 -1.886934 1.000000 -21.566000
H 5.290053 6.795618 11.225066 3.834857 0.065463 -1.633977 0.062500 10.783000
H 2.639784 4.735082 12.451455 4.266487 1.488852 -6.994378 0.062500 10.783000
O 2.947130 4.645923 12.473305 0.051242 -0.413363 1.650669 1.000000 -21.566000
H 2.960441 4.481362 12.745166 -10.143523 0.931500 2.531222 0.062500 10.783000
H 4.363099 8.088138 10.066978 -10.656834 9.092217 1.134958 0.062500 10.783000
O 4.085570 8.128181 10.192795 -3.680083 1.117546 2.850452 1.000000 -21.566000
H 3.896291 8.229462 9.949341 6.637331 0.824397 4.037769 0.062500 10.783000
H 6.579188 0.905748 10.237193 10.068791 7.005481 -4.035202 0.062500 10.783000
O 6.539267 0.748818 9.948967 1.879957 -1.947495 -0.866886 1.000000 -21.566000
H 6.509076 0.920567 9.685337 -8.604173 10.992253 8.644899 0.062500 10.783000
H 6.112898 4.851636 13.747642 -7.362659 12.018458 -14.381559 0.062500 10.783000
O 6.384491 5.025801 13.798520 0.141806 0.824716 1.000803 1.000000 -21.566000
H 6.590783 4.834697 13.952078 -6.353588 -5.475740 -2.669208 0.062500 10.783000
H 7.748910 6.607605 13.192852 2.366067 1.128209 3.533214 0.062500 10.783000
O 7.545058 6.716906 13.431137 -1.446192 -1.017094 -1.638665 1.000000 -21.566000
H 7.262118 6.549370 13.457764 -6.499063 2.933452 2.168215 0.062500 10.783000
H 7.607796 4.691487 13.125881 -8.340366 -3.335340 -5.488628 0.062500 10.783000
O 7.338762 4.534703 13.184460 -2.900487 -0.065288 -1.147226 1.000000 -21.566000
H 7.155968 4.634371 12.954030 0.732622 6.288568 -0.885310 0.062500 10.783000
H 7.311752 4.752305 10.272443 4.166038 -9.414248 -0.498381 0.062500 10.783000
O 7.585764 4.779382 10.132733 0.290110 -2.061877 -3.231837 1.000000 -21.566000
H 7.585074 4.900175 9.838470 -2.505353 -5.326472 -6.791234 0.062500 10.783000
H 7.691042 4.477359 11.717380 6.639097 -2.581693 14.018386 0.062500 10.783000
O 7.559355 4.194486 11.676746 0.863034 -0.857543 -2.460934 1.000000 -21.566000
H 7.284013 4.238413 11.831812 0.498450 7.825009 -9.094434 0.062500 10.783000
H 12.458412 6.950165 14.135565 1.063091 3.401832 17.768138 0.062500 10.783000
O 12.224868 7.095060 14.309839 1.789760 -1.967599 -0.189244 1.000000 -21.566000
H 12.281010 7.414966 14.305654 4.542004 8.808533 2.890177 0.062500 10.783000
H 3.436121 5.676926 2.739456 11.485030 -2.189677 2.631079 0.062500 10.783000
O 3.377461 5.488006 2.996767 -1.796193 1.186575 1.987723 1.000000 -21.566000
H 3.105668 5.548104 3.156852 6.046795 1.394442 12.697232 0.062500 10.783000
H 10.340238 8.443069 6.858507 -14.031068 4.011436 6.381686 0.062500 10.783000
O 10.292867 8.636080 7.109450 0.744129 -4.029844 3.843842 1.000000 -21.566000
H 10.550305 8.589278 7.298494 12.758899 0.488699 -11.276189 0.062500 10.783000
H 14.413661 9.002031 7.113607 -6.828275 -10.791052 -2.481304 0.062500 10.783000
O 14.607690 8.829980 7.313167 -3.947342 -1.470636 -5.183803 1.000000 -21.566000
H 14.435974 8.818935 7.588092 14.424366 -0.192385 2.590394 0.062500 10.783000
H 0.833673 5.789566 11.562649 -23.235964 -0.128224 -1.815410 0.062500 10.783000
O 0.830927 6.091785 11.429385 -0.597261 -1.911333 -1.609617 1.000000 -21.566000
H 0.605480 6.091998 11.202398 -17.428438 4.306512 14.216482 0.062500 10.783000
H 0.291276 4.602755 11.721996 15.960689 -7.169759 0.892239 0.062500 10.783000
O 0.528489 4.617098 11.919412 2.104371 -0.926085 3.657294 1.000000 -21.566000
H 0.478899 4.826949 12.160829 -10.561407 2.722793 -0.201603 0.062500 10.783000
H 6.488659 2.834670 9.235689 5.209788 0.913071 2.055100 0.062500 10.783000
O 6.436330 2.816844 8.932191 -1.235630 -1.103374 -5.784698 1.000000 -21.566000
H 6.713082 2.782990 8.779855 0.972978 -14.602535 -11.456884 0.062500 10.783000
H 3.012602 7.669230 8.652979 -2.759013 1.456123 2.205182 0.062500 10.783000
O 2.896569 7.610637 8.945548 -0.424716 0.964714 3.101080 1.000000 -21.566000
H 2.748945 7.852465 9.084093 7.601594 11.419474 8.164378 0.062500 10.783000
H 7.723271 3.888072 11.246706 2.781582 -8.133223 2.690393 0.062500 10.783000
O 7.948341 3.701925 11.092076 -1.455309 0.377322 -4.989916 1.000000 -21.566000
H 7.889372 3.404657 11.170415 8.047110 4.154038 4.276375 0.062500 10.783000
H 5.836366 6.252048 11.834334 -4.874174 9.922755 -7.936993 0.062500 10.783000
O 5.671385 6.176914 12.092285 1.136179 2.006280 5.110437 1.000000 -21.566000
H 5.511616 6.457780 12.166897 -3.848458 3.584771 -11.689293 0.062500 10.783000
H 6.121530 8.150175 12.430051 7.872696 -11.341803 -1.445978 0.062500 10.783000
O 6.259469 8.028003 12.154614 1.760014 -1.127957 0.141276 1.000000 -21.566000
H 6.082732 8.092521 11.886688 -4.249814 -3.637654 8.668175 0.062500 10.783000
H 5.715998 7.156801 13.336651 13.740368 -7.293013 7.300398 0.062500 10.783000
O 5.968678 7.198814 13.150006 1.638601 -0.979127 -3.262587 1.000000 -21.566000
H 5.875524 7.356682 12.879532 8.696471 3.463176 -5.217234 0.062500 10.783000
H 6.057066 7.041210 11.027481 -7.352997 -2.245304 4.792563 0.062500 10.783000
O 6.080956 6.931028 10.724710 -1.651857 -0.296955 -0.770198 1.000000 -21.566000
H 6.342237 7.073002 10.583493 7.833531 3.439297 -5.018940 0.062500 10.783000
H 5.528230 10.885057 14.624177 -4.289098 -3.513265 4.755261 0.062500 10.783000
O 5.637187 10.828353 14.330583 -0.311753 -2.148250 -0.224808 1.000000 -21.566000
H 5.886727 11.024873 14.273056 -10.023485 11.324119 1.392886 0.062500 10.783000
H 9.957444 2.242776 11.933981 3.117287 6.979063 -0.949286 0.062500 10.783000
O 9.738769 2.132175 11.719479 0.930466 -0.778605 -0.323107 1.000000 -21.566000
H 9.433599 2.194048 11.820813 0.160485 -2.407055 -6.049643 0.062500 10.783000
H 7.609403 5.296640 12.214960 -4.426599 -10.787970 -1.259568 0.062500 10.783000
O 7.626483 5.114475 11.946397 1.616511 1.193371 -0.912577 1.000000 -21.566000
H 7.512794 5.269629 11.690566 -1.475650 -6.591134 7.901034 0.062500 10.783000
H 4.348811 8.275405 14.666774 6.414711 -0.663572 6.140035 0.062500 10.783000
O 4.395807 8.308573 0.244211 -0.078894 -2.163296 4.582910 1.000000 -21.566000
H 4.478454 8.024939 0.371859 10.448116 1.960543 -8.786464 0.062500 10.783000
H 11.333765 8.679753 13.438999 -8.698372 -8.307672 12.693938 0.062500 10.783000
O 11.420640 8.997861 13.436150 -3.128408 -1.288835 -0.542072 1.000000 -21.566000
H 11.380386 9.084591 13.127776 6.015915 7.340198 4.143117 0.062500 10.783000
H 2.278323 5.767852 12.809062 -2.703518 7.531037 1.370931 0.062500 10.783000
O 2.508347 5.594658 12.955145 -0.101189 -2.037002 -0.675006 1.000000 -21.566000
H 2.341134 5.499813 13.206992 -3.040564 -1.621305 -7.185422 0.062500 10.783000
H 12.553269 10.068927 7.787387 -6.503467 -8.955996 -12.811121 0.062500 10.783000
O 12.431974 10.006090 8.074663 -1.405098 1.656396 -0.523662 1.000000 -21.566000
H 12.112150 10.032714 8.090277 1.618545 15.118207 -1.615692 0.062500 10.783000
H 2.664116 8.138473 11.910526 0.219465 -5.542290 -8.221671 0.062500 10.783000
O 2.784220 7.870633 11.779756 0.155943 0.299340 0.950910 1.000000 -21.566000
H 2.909945 7.709237 12.038188 11.041534 14.681192 3.186183 0.062500 10.783000
H 6.389388 7.042205 7.439550 -1.391186 9.413625 -7.385805 0.062500 10.783000
O 6.350821 6.925105 7.740243 2.086965 0.684170 1.096841 1.000000 -21.566000
H 6.313899 6.608676 7.751441 -0.767308 -9.490494 -0.117032 0.062500 10.783000
H 2.934887 7.905965 7.351171 17.383478 4.971614 12.686058 0.062500 10.783000
O 2.768439 8.173450 7.252684 -2.606784 -0.123313 -1.377187 1.000000 -21.566000
H 2.741061 8.355650 7.512862 -1.914054 11.342546 -3.350945 0.062500 10.783000
H 6.056203 8.194764 9.616310 4.151004 9.926431 -4.800564 0.062500 10.783000
O 5.785414 8.106617 9.782970 -0.835811 -1.039495 2.077023 1.000000 -21.566000
H 5.563145 8.336972 9.784113 6.503127 -1.276279 4.766186 0.062500 10.783000
H 6.300680 8.530101 1.490650 4.173373 4.296436 15.271621 0.062500 10.783000
O 6.436362 8.773111 1.332365 -1.031462 1.607836 0.475506 1.000000 -21.566000
H 6.380466 8.756413 1.012398 -8.026725 11.025144 -4.410151 0.062500 10.783000
H 7.720052 8.245113 6.419283 9.324619 0.144185 4.388403 0.062500 10.783000
O 7.457492 8.071346 6.485882 0.362903 4.097051 0.953184 1.000000 -21.566000
H 7.216413 8.104476 6.273794 4.268892 0.664760 21.142312 0.062500 10.783000
H 8.141615 9.555966 12.246360 0.368635 6.660593 -0.793301 0.062500 10.783000
O 8.128309 9.873356 12.287168 3.782935 -2.509938 -2.546500 1.000000 -21.566000
H 8.394723 9.956065 12.449980 6.871241 -1.658823 -9.161949 0.062500 10.783000
H 7.375527 6.816083 9.234931 9.944058 2.962497 3.473183 0.062500 10.783000
O 7.373444 6.542278 9.069021 -1.040862 1.992024 0.225584 1.000000 -21.566000
H 7.262968 6.593300 8.775279 -10.027205 -14.071038 -6.363979 0.062500 10.783000
H 8.952268 6.417318 9.517866 -7.134015 -7.589471 3.001607 0.062500 10.783000
O 8.744038 6.473291 9.263325 -1.168824 -3.668283 0.452880 1.000000 -21.566000
H 8.615989 6.183344 9.186739 -6.071233 6.489251 -4.838198 0.062500 10.783000
H 8.090353 6.867505 10.636185 0.924350 -2.697700 4.838003 0.062500 10.783000
O 7.903569 6.850691 10.901207 2.025282 0.208231 -1.134024 1.000000 -21.566000
H 7.786596 6.547679 10.929043 -6.713806 3.924195 5.815637 0.062500 10.783000
H 9.285675 5.997603 11.451513 3.679132 0.809095 4.505804 0.062500 10.783000
O 9.062388 5.951288 11.681375 -2.400705 0.411627 -1.820117 1.000000 -21.566000
H 9.244674 5.804491 11.907940 8.847218 -6.554061 4.267773 0.062500 10.783000
H 0.794830 11.042967 1.276031 6.535473 -1.957675 -9.521075 0.062500 10.783000
O 0.628689 11.030366 1.555271 1.807489 2.540910 -0.288359 1.000000 -21.566000
H 0.327652 10.983640 1.462837 0.835928 -12.333516 4.661841 0.062500 10.783000
H 13.156904 10.784159 1.342421 -15.533158 -5.036842 4.575336 0.062500 10.783000
O 13.070225 10.869420 1.651218 -4.013818 -2.224328 -0.393858 1.000000 -21.566000
H 12.946060 11.157683 1.640768 0.234318 1.753323 0.353113 0.062500 10.783000
H 2.391743 6.180414 11.149108 6.836723 -5.692731 4.414166 0.062500 10.783000
O 2.608340 6.010823 10.986418 -0.712684 0.193382 -1.109838 1.000000 -21.566000
H 2.530481 6.046338 10.687456 -11.502959 2.216287 7.248089 0.062500 10.783000
H 2.814654 7.137273 8.705526 2.225603 2.490822 18.758550 0.062500 10.783000
O 2.663839 6.874870 8.584094 -2.503369 -2.863886 2.018646 1.000000 -21.566000
H 2.412084 6.771600 8.760386 -3.620435 -0.074963 4.766580 0.062500 10.783000
H 1.360465 7.817762 12.945691 -13.738458 1.324732 -8.498793 0.062500 10.783000
O 1.207384 7.577318 12.797354 -0.128649 -1.372262 3.248085 1.000000 -21.566000
H 0.954908 7.491385 12.970457 -2.267398 -3.024783 -6.517506 0.062500 10.783000
H 3.435264 10.201187 9.594153 2.232537 -2.341813 5.522532 0.062500 10.783000
O 3.725758 10.063863 9.526036 1.329944 0.806036 2.516236 1.000000 -21.566000
H 3.944501 10.275561 9.492293 11.933998 -12.201868 0.809693 0.062500 10.783000
H 4.589393 7.322584 9.275951 3.042448 0.081252 -6.590219 0.062500 10.783000
O 4.858371 7.486322 9.339783 -0.636867 0.841639 1.165657 1.000000 -21.566000
H 4.776565 7.767283 9.460876 -19.493716 3.470434 -14.903481 0.062500 10.783000
H 10.915744 12.689954 3.738614 -8.950121 -1.114067 11.298217 0.062500 10.783000
O 10.606902 12.780901 3.772026 3.399784 0.833949 -0.567500 1.000000 -21.566000
H 10.431140 12.589056 3.576370 -13.957648 -0.426272 4.683952 0.062500 10.783000
H 10.442970 9.636573 13.310410 -2.291910 -1.157366 10.831710 0.062500 10.783000
O 10.625004 9.731825 13.054549 0.094851 2.606071 -0.402030 1.000000 -21.566000
H 10.879889 9.926190 13.141779 5.747746 0.092747 -1.089003 0.062500 10.783000
H 4.548165 12.270498 0.737388 6.510347 6.021028 5.186653 0.062500 10.783000
O 4.631164 11.998964 0.580183 0.423648 0.179230 1.048921 1.000000 -21.566000
H 4.885032 12.056446 0.398094 -16.341066 -19.099354 -2.472837 0.062500 10.783000
H 8.023764 3.928125 10.620425 2.452886 -5.160810 -0.887752 0.062500 10.783000
O 7.992349 3.989164 10.300606 0.846104 1.567853 0.303064 1.000000 -21.566000
H 7.915521 4.305252 10.268891 4.425457 -4.565613 -17.541081 0.062500 10.783000
H 4.990290 8.444760 9.789411 2.589573 -3.598827 6.221471 0.062500 10.783000
O 4.798072 8.203838 9.682269 3.001774 -2.243710 -2.353765 1.000000 -21.566000
H 4.597161 8.367024 9.502814 18.016160 5.886043 -5.640396 0.062500 10.783000
H 8.905254 2.526328 11.985065 4.089374 -8.331946 -0.966303 0.062500 10.783000
O 8.953480 2.761877 11.774430 -1.545933 3.776214 -1.973744 1.000000 -21.566000
H 8.787181 2.708716 11.492592 0.454286 -3.319171 5.010662 0.062500 10.783000
H 5.608853 7.958681 12.704279 -3.647613 -1.017834 -10.124516 0.062500 10.783000
O 5.431301 7.710022 12.631776 1.191977 1.236142 -0.637970 1.000000 -21.566000
H 5.136881 7.835166 12.644153 3.159951 10.761937 4.447671 0.062500 10.783000
H 12.773044 1.527746 5.467203 9.297241 -1.612178 8.584216 0.062500 10.783000
O 12.792079 1.238217 5.338963 0.538184 -0.933247 -2.222771 1.000000 -21.566000
H 12.940780 1.033560 5.559617 0.537787 -5.697509 -3.430637 0.062500 10.783000
H 10.557857 11.294959 7.087176 -11.162147 3.911325 0.644253 0.062500 10.783000
O 10.353783 11.390560 7.329960 5.891706 0.636973 2.029045 1.000000 -21.566000
H 10.349274 11.705813 7.386953 16.315669 -9.177320 11.193811 0.062500 10.783000
H 1.667828 8.291721 14.078756 -2.637661 -13.005440 -15.389119 0.062500 10.783000
O 1.788729 8.038883 14.239962 1.442726 2.485146 -1.909732 1.000000 -21.566000
H 1.549433 7.956706 14.442087 -2.087684 -2.277693 -8.820569 0.062500 10.783000
H 11.472264 10.030969 7.513359 4.693618 -9.014349 8.733584 0.062500 10.783000
O 11.570450 10.097891 7.803924 -0.804843 -0.584362 0.505497 1.000000 -21.566000
H 11.429255 10.364143 7.907797 -4.620342 -4.179128 -5.695996 0.062500 10.783000
H 8.338121 9.965617 2.303756 -9.150450 0.568936 6.251540 0.062500 10.783000
O 8.444885 9.654435 2.273443 0.524590 -3.743468 0.417507 1.000000 -21.566000
H 8.170203 9.496775 2.258264 -4.193499 12.093306 -14.539074 0.062500 10.783000
H 1.794111 12.660853 11.717164 -5.208997 8.265979 1.827484 0.062500 10.783000
O 1.735746 12.560415 12.009056 -2.673741 2.651165 1.628158 1.000000 -21.566000
H 1.994813 12.388487 12.131075 -0.238266 -1.463804 15.919475 0.062500 10.783000
H 6.294086 5.570585 8.621695 3.434673 -15.077782 -1.613189 0.062500 10.783000
O 6.552007 5.760359 8.611451 -2.251928 2.434570 0.158524 1.000000 -21.566000
H 6.556751 5.986873 8.842693 0.663944 1.440871 -4.514617 0.062500 10.783000
H 9.389851 5.455474 4.610007 6.942508 -1.153360 -12.492645 0.062500 10.783000
O 9.611936 5.352426 4.830444 -4.480130 2.734960 3.313289 1.000000 -21.566000
H 9.754994 5.603031 4.958373 -5.150127 9.079581 11.420585 0.062500 10.783000
H 5.769825 13.315950 13.917587 -2.611007 -10.282069 2.068509 0.062500 10.783000
O 5.764036 13.576991 13.722661 0.341940 3.259984 -1.437756 1.000000 -21.566000
H 5.471010 13.593826 13.594018 -0.743677 -1.349325 -11.387167 0.062500 10.783000
H 1.324866 13.314395 3.169667 10.420820 4.637053 -4.470059 0.062500 10.783000
O 1.393802 13.606232 3.233929 -2.325704 -2.677162 1.127933 1.000000 -21.566000
H 1.658184 13.667660 3.061537 -4.777223 -2.667414 -10.205393 0.062500 10.783000
H 9.583479 2.892674 5.858142 9.664491 1.410223 -4.951978 0.062500 10.783000
O 9.898408 2.942650 5.900766 -2.256764 1.523051 1.795888 1.000000 -21.566000
H 9.989676 3.182415 6.087817 20.223813 -9.587001 -2.418579 0.062500 10.783000
H 7.699809 5.702112 11.067475 4.863221 -8.639298 -3.065201 0.062500 10.783000
O 7.925413 5.930191 11.013475 0.546173 0.526178 -0.626277 1.000000 -21.566000
H 8.198254 5.777281 10.984869 -8.402916 -4.673760 -7.080144 0.062500 10.783000
H 6.607864 8.960597 6.025760 1.409818 -11.651016 1.352312 0.062500 10.783000
O 6.819119 9.125834 6.208779 -3.411507 -1.918331 2.594218 1.000000 -21.566000
H 7.022525 8.942065 6.374391 -11.760430 -1.428546 2.747882 0.062500 10.783000
H 10.013920 1.745219 4.101514 -4.635676 2.052947 -8.913817 0.062500 10.783000
O 9.950534 1.590795 4.384510 -0.690754 2.871277 -1.799904 1.000000 -21.566000
H 10.019144 1.816764 4.613214 -17.369824 0.253626 -1.872752 0.062500 10.783000
H 8.939087 13.276963 5.924107 10.483857 -3.295798 0.484628 0.062500 10.783000
O 9.004697 13.598169 5.978749 0.258392 -1.327640 0.490016 1.000000 -21.566000
H 8.878691 13.715034 6.255626 3.913806 -2.294748 -4.350625 0.062500 10.783000
H 10.383842 1.201230 6.743383 -5.502124 4.604001 10.612699 0.062500 10.783000
O 10.294285 1.104305 6.454204 1.002539 4.198950 -1.924340 1.000000 -21.566000
H 10.306084 0.780628 6.484878 16.129195 2.257025 3.181235 0.062500 10.783000
H 11.565068 13.880381 7.211496 2.214872 -8.835446 -4.312672 0.062500 10.783000
O 11.520071 14.064460 6.935945 1.195506 -0.357014 -1.499433 1.000000 -21.566000
H 11.286229 14.276865 7.012310 -5.013470 -6.309019 -11.001473 0.062500 10.783000
H 11.021471 13.891516 5.966758 -6.380445 -2.314446 -4.240039 0.062500 10.783000
O 11.024099 14.130221 6.204174 4.279746 -3.121000 2.413412 1.000000 -21.566000
H 11.128094 13.999223 6.477184 0.193101 -4.581573 4.480558 0.062500 10.783000
H 2.755528 10.735997 11.334349 1.894699 -8.875645 -2.065376 0.062500 10.783000
O 2.924209 10.665976 11.598787 1.183261 6.087601 0.616245 1.000000 -21.566000
H 3.169946 10.489716 11.517923 0.473791 3.856981 -4.421780 0.062500 10.783000
H 13.946784 11.130065 0.643084 1.729742 -3.741030 6.358089 0.062500 10.783000
O 14.056295 10.831079 0.659352 2.426727 2.797185 -0.952655 1.000000 -21.566000
H 14.167214 10.723280 0.384202 8.778036 -5.102509 4.738081 0.062500 10.783000
H 5.628306 7.103726 6.803167 0.010888 -1.577631 -1.054802 0.062500 10.783000
O 5.467019 7.189742 7.064749 -1.203249 -0.059652 0.992977 1.000000 -21.566000
H 5.202393 7.387497 7.012243 -3.650203 -0.744819 4.864178 0.062500 10.783000
H 8.827425 8.700495 7.842938 -6.117683 -3.337929 -4.844119 0.062500 10.783000
O 8.970754 8.611334 7.569456 1.798873 -3.761430 -0.751062 1.000000 -21.566000
H 9.048832 8.881477 7.404016 6.668097 -3.242082 -2.975287 0.062500 10.783000
H 4.594250 10.401235 5.017175 -12.221415 0.811633 7.526716 0.062500 10.783000
O 4.685452 10.292542 4.731022 1.835417 -1.754665 -2.504132 1.000000 -21.566000
H 4.940429 10.462063 4.668569 9.904082 -2.307209 20.672386 0.062500 10.783000
H 10.849568 9.639358 13.973216 6.028882 5.213607 5.191327 0.062500 10.783000
O 11.110168 9.524531 14.072261 -1.955970 -0.730809 -1.994414 1.000000 -21.566000
H 11.222872 9.333277 13.843007 -6.019721 -9.307012 1.723190 0.062500 10.783000
H 10.774494 10.787898 6.249850 7.718184 -11.153557 -2.214692 0.062500 10.783000
O 10.771148 10.613203 5.985791 2.037956 -0.724785 -0.287009 1.000000 -21.566000
H 11.055313 10.654338 5.835162 9.239900 0.970486 -5.640469 0.062500 10.783000
H 11.435854 9.348288 7.045413 10.354750 2.654102 6.237760 0.062500 10.783000
O 11.467391 9.033168 7.118933 -3.469509 2.516691 -1.572524 1.000000 -21.566000
H 11.635862 8.891303 6.886522 10.637072 16.178666 7.643888 0.062500 10.783000
H 9.368496 10.899518 8.137580 -9.694996 -2.489720 -3.941189 0.062500 10.783000
O 9.252704 11.198825 8.213423 -5.763136 0.504300 -0.643611 1.000000 -21.566000
H 9.019884 11.153393 7.996654 -0.773271 5.058872 -1.959205 0.062500 10.783000
H 5.738821 9.045088 14.005313 7.951702 8.058802 -1.716920 0.062500 10.783000
O 5.975152 8.840680 14.056559 0.333641 2.535117 -3.552416 1.000000 -21.566000
H 6.127665 8.981664 14.300032 -7.106212 -7.507562 0.890295 0.062500 10.783000
H 8.366197 12.843207 1.836856 18.979897 1.780574 2.641839 0.062500 10.783000
O 8.046162 12.858135 1.753986 3.853675 2.160306 -0.565099 1.000000 -21.566000
H 8.049671 12.594792 1.554780 4.356197 6.172080 -9.930464 0.062500 10.783000
H 13.015097 14.340120 3.244074 -6.689541 -2.218494 0.416267 0.062500 10.783000
O 13.240805 14.292116 3.442832 1.376220 -3.204394 0.250580 1.000000 -21.566000
H 13.161698 14.047226 3.640306 -3.994817 -8.065440 -19.332591 0.062500 10.783000
H 11.595379 12.577691 4.917201 -14.665098 -14.047106 5.636151 0.062500 10.783000
O 11.807553 12.545128 5.167698 4.217137 2.548884 -0.256297 1.000000 -21.566000
H 12.074235 12.411080 5.070966 6.519750 5.542769 0.474123 0.062500 10.783000
H 10.885835 10.622693 10.314997 0.701427 15.079921 -4.964271 0.062500 10.783000
O 11.124567 10.556746 10.522038 -0.881050 -1.071764 -2.504176 1.000000 -21.566000
H 11.195145 10.805512 10.713834 -4.185503 -0.496661 -7.259227 0.062500 10.783000
H 12.241974 11.406570 4.845268 7.605749 0.791570 4.251588 0.062500 10.783000
O 12.313110 11.538664 5.115036 0.766476 1.184366 -1.023856 1.000000 -21.566000
H 12.631996 11.580719 5.150695 1.520134 5.549110 9.252794 0.062500 10.783000
H 13.388511 13.683520 7.246771 -10.592338 5.200118 19.149244 0.062500 10.783000
O 13.509306 13.508157 7.481214 1.814468 -3.021856 1.758794 1.000000 -21.566000
H 13.291517 13.469373 7.714695 -16.536040 4.575179 -9.062494 0.062500 10.783000
H 3.630425 12.024579 13.784691 -4.719944 6.460537 -9.725274 0.062500 10.783000
O 3.878235 12.212197 13.867397 1.272777 0.366395 1.017049 1.000000 -21.566000
H 4.020092 12.045421 14.097225 8.729603 -9.327941 -6.738803 0.062500 10.783000
H 0.965140 8.989851 11.365722 6.068861 -0.951240 -9.297495 0.062500 10.783000
O 0.789659 9.188654 11.154811 -1.593337 2.648063 0.236430 1.000000 -21.566000
H 0.946105 9.176587 10.869330 3.533566 -2.929042 -4.237044 0.062500 10.783000
H 3.964936 8.629451 12.673126 14.716033 6.893028 0.746868 0.062500 10.783000
O 3.933667 8.933374 12.551337 4.526429 1.240898 1.362400 1.000000 -21.566000
H 3.639333 9.015165 12.471756 3.230943 -12.786923 -4.804771 0.062500 10.783000
H 4.833295 10.189612 0.927258 -2.196571 -4.465028 -12.376142 0.062500 10.783000
O 4.797793 10.404973 0.687310 0.815452 -0.164638 1.824612 1.000000 -21.566000
H 5.023591 10.630062 0.694462 5.878162 3.204227 2.272148 0.062500 10.783000
H 5.605390 9.472596 5.036809 -3.775799 0.719470 5.587079 0.062500 10.783000
O 5.392280 9.286704 5.199477 -0.900527 -1.022157 -3.114235 1.000000 -21.566000
H 5.330266 9.020407 5.024177 9.947531 0.763593 -5.727633 0.062500 10.783000
H 0.602699 10.019785 3.321997 19.469223 -0.897566 -5.253164 0.062500 10.783000
O 0.515802 10.249919 3.527526 -3.184895 0.133755 1.358450 1.000000 -21.566000
H 0.628359 10.500196 3.360637 -3.310855 5.298955 16.713709 0.062500 10.783000
H 10.155978 6.911154 0.768954 -6.588432 -5.308660 -5.910259 0.062500 10.783000
O 10.098558 6.752359 1.040964 -5.035585 4.005459 2.726679 1.000000 -21.566000
H 9.847860 6.891246 1.183213 4.732907 3.026602 10.790959 0.062500 10.783000
H 9.413624 12.871999 3.352697 -0.521098 -9.732828 -6.176304 0.062500 10.783000
O 9.680142 12.740450 3.228987 0.832234 -2.816119 0.237524 1.000000 -21.566000
H 9.821729 12.557913 3.449930 -8.496379 2.076736 2.976564 0.062500 10.783000
H 12.721496 9.919659 1.573654 -12.185238 -6.802176 2.886082 0.062500 10.783000
O 12.507940 9.894197 1.806087 -0.481573 -3.086340 -1.886114 1.000000 -21.566000
H 12.218952 9.874387 1.662483 6.614099 -15.960452 -0.304253 0.062500 10.783000
H 7.232633 0.491425 11.742084 -5.740080 7.823963 -1.682717 0.062500 10.783000
O 7.502177 0.618365 11.617455 0.053413 -0.809719 0.756946 1.000000 -21.566000
H 7.744406 0.405570 11.570265 9.660258 4.174410 -2.524695 0.062500 10.783000
H 10.253870 12.341203 5.310863 -6.157743 11.280352 0.939619 0.062500 10.783000
O 10.147827 12.374608 5.608588 -2.449449 2.737261 0.926099 1.000000 -21.566000
H 9.864555 12.233641 5.600922 -1.152646 -0.323056 10.596019 0.062500 10.783000
H 11.358955 14.439473 8.745290 1.583999 4.980903 -4.418332 0.062500 10.783000
O 11.676201 14.418719 8.654383 0.164693 2.582899 -2.929557 1.000000 -21.566000
H 11.699089 14.150970 8.478810 -0.823484 -8.458638 7.371805 0.062500 10.783000
H 8.162606 1.989861 8.063043 3.464948 7.660878 -1.158237 0.062500 10.783000
O 8.180111 2.031420 7.746460 -2.351576 2.765705 3.203642 1.000000 -21.566000
H 8.089103 2.327409 7.685525 -7.851395 2.570217 -1.766702 0.062500 10.783000
H 11.180081 0.128180 9.597049 5.497212 -1.962675 2.407433 0.062500 10.783000
O 11.119146 14.565307 9.674238 -3.618996 1.438267 2.881535 1.000000 -21.566000
H 11.031902 14.424945 9.400339 -6.286108 5.066281 -6.792275 0.062500 10.783000
H 10.474270 0.741632 9.521243 -2.483634 17.317186 -6.293613 0.062500 10.783000
O 10.219143 0.562136 9.629658 2.283211 2.203663 1.039977 1.000000 -21.566000
H 9.980686 0.771288 9.687477 -2.571120 -0.880385 -8.518559 0.062500 10.783000
H 12.223548 9.432078 11.193558 4.283377 2.068624 8.666232 0.062500 10.783000
O 12.528957 9.336791 11.132670 -0.617016 0.584245 1.144873 1.000000 -21.566000
H 12.689006 9.614656 11.223811 -11.380892 15.894979 -6.212666 0.062500 10.783000
H 12.781002 7.877034 10.954759 -3.783908 -4.662398 4.684612 0.062500 10.783000
O 13.051353 7.734028 11.030360 -6.646653 2.892749 0.205512 1.000000 -21.566000
H 12.949375 7.415090 11.052193 4.913671 -4.820735 5.600069 0.062500 10.783000
H 3.820296 12.081646 7.192937 11.398476 2.146436 -3.560773 0.062500 10.783000
O 4.034904 12.034583 7.432145 0.201331 3.852853 1.014924 1.000000 -21.566000
H 4.273004 11.907937 7.270228 0.411908 9.060095 -1.997208 0.062500 10.783000
H 1.657018 9.700462 6.978705 -6.231488 5.842757 -0.544415 0.062500 10.783000
O 1.402912 9.849008 6.870300 -2.639105 3.108652 -1.765998 1.000000 -21.566000
H 1.382079 10.145508 6.989927 -4.981920 -1.895519 1.158282 0.062500 10.783000
H 8.106572 5.568557 10.275539 -0.534570 2.389624 1.424738 0.062500 10.783000
O 8.341611 5.406034 10.412489 -3.603216 -2.229504 1.349237 1.000000 -21.566000
H 8.600339 5.370587 10.219596 2.459736 -4.446195 -8.046926 0.062500 10.783000
H 14.342377 11.447925 14.197087 1.704408 1.897506 1.512333 0.062500 10.783000
O 14.420935 11.422524 14.498917 0.801243 -1.552606 -2.227185 1.000000 -21.566000
H 14.160656 11.515527 14.659244 4.859382 -4.765409 14.801448 0.062500 10.783000
H 5.708490 1.475185 11.821952 -0.871285 0.216082 -8.059042 0.062500 10.783000
O 5.787299 1.751623 11.682506 0.572874 -0.846380 2.335900 1.000000 -21.566000
H 6.106901 1.708127 11.658745 3.280371 -5.919887 -1.369260 0.062500 10.783000
H 7.033383 13.475899 10.471874 -8.943786 12.400569 -1.840712 0.062500 10.783000
O 7.088595 13.677523 10.712094 3.505800 -1.160665 0.298354 1.000000 -21.566000
H 7.408914 13.619049 10.778108 6.686525 -6.096029 -4.653494 0.062500 10.783000
H 9.596492 13.594606 13.526152 5.405813 4.761078 -12.490458 0.062500 10.783000
O 9.491868 13.500870 13.221809 2.882774 0.814286 -0.225068 1.000000 -21.566000
H 9.763749 13.424998 13.091111 -9.141902 -6.740186 -14.084250 0.062500 10.783000
H 8.544503 8.718977 2.332635 1.378417 16.012571 0.036404 0.062500 10.783000
O 8.867877 8.677562 2.395843 -0.319749 -0.105896 -0.057775 1.000000 -21.566000
H 8.901159 8.483765 2.639552 12.589204 -3.920702 -1.247852 0.062500 10.783000
H 7.870537 0.047179 6.125686 1.026760 2.460217 8.349135 0.062500 10.783000
O 8.166053 14.694331 6.237116 -0.694746 -0.649528 -1.918962 1.000000 -21.566000
H 8.331941 0.220014 6.308141 -3.218332 8.004404 2.326658 0.062500 10.783000
H 12.307039 3.495984 10.380687 -2.231668 3.090231 11.751820 0.062500 10.783000
O 12.059682 3.337235 10.237888 -2.250880 1.263234 4.148594 1.000000 -21.566000
H 11.785315 3.493745 10.214669 -2.893398 -7.004836 -2.967864 0.062500 10.783000
H 13.671539 1.199022 9.013273 12.096364 0.729009 6.768220 0.062500 10.783000
O 13.708599 1.325345 8.714292 -1.142862 0.031832 0.767371 1.000000 -21.566000
H 13.970711 1.174963 8.617061 8.490112 6.941801 1.528196 0.062500 10.783000
H 1.164468 12.242167 6.693102 -4.420981 -0.763173 2.184205 0.062500 10.783000
O 1.343874 12.178617 6.432077 -1.719292 2.954926 1.603244 1.000000 -21.566000
H 1.164450 11.982355 6.251110 -9.034980 -3.375414 10.811116 0.062500 10.783000
H 12.791448 1.696993 8.250868 2.396912 3.873806 0.216701 0.062500 10.783000
O 12.677233 1.431087 8.422121 0.912563 0.360714 -2.222015 1.000000 -21.566000
H 12.893419 1.199067 8.375093 0.200286 -1.195847 -3.279145 0.062500 10.783000
H 13.317607 1.465076 9.965943 13.349032 -12.548146 0.955995 0.062500 10.783000
O 13.459340 1.212189 10.073603 -5.520953 5.479574 -0.371274 1.000000 -21.566000
H 13.604202 1.241407 10.363431 -0.071157 4.795158 -0.958537 0.062500 10.783000
H 1.428372 12.376517 8.059470 0.330233 0.698713 7.818711 0.062500 10.783000
O 1.531048 12.579623 8.274757 -2.600553 2.743330 2.475012 1.000000 -21.566000
H 1.766962 12.433728 8.433737 -6.757575 9.787964 6.066967 0.062500 10.783000
H 4.838903 14.642842 6.057754 6.096316 3.335249 10.108009 0.062500 10.783000
O 4.942414 0.206897 6.065350 -3.595753 0.257562 0.428043 1.000000 -21.566000
H 4.976832 0.307454 5.760498 7.820440 -24.908206 -3.807816 0.062500 10.783000
H 1.690865 12.128197 2.107830 10.217225 -6.813838 4.771859 0.062500 10.783000
O 1.563781 12.028569 1.816952 1.224559 -1.649664 1.416598 1.000000 -21.566000
H 1.448427 12.284640 1.679359 16.133458 -8.920284 -12.955358 0.062500 10.783000
H 12.432270 9.600376 6.538019 -1.617275 -1.587507 3.436622 0.062500 10.783000
O 12.457798 9.915778 6.583530 -1.340793 1.851127 -2.547425 1.000000 -21.566000
H 12.192269 10.103093 6.580277 -20.834839 -6.342672 3.848906 0.062500 10.783000
H 8.841634 3.689839 8.292245 -6.044873 -4.144241 5.812122 0.062500 10.783000
O 8.809965 4.013684 8.251483 -2.298515 -0.398197 1.975956 1.000000 -21.566000
H 9.058707 4.143737 8.087751 -5.592832 -1.125811 -12.999142 0.062500 10.783000
H 3.914457 0.321400 13.429568 8.471824 -9.013893 -3.108213 0.062500 10.783000
O 3.869809 0.533200 13.666264 0.094789 -2.429263 -1.320952 1.000000 -21.566000
H 3.839846 0.834951 13.536734 -7.942599 -6.553393 -17.596298 0.062500 10.783000
H 5.980546 14.255272 9.432439 -2.427152 6.837891 0.340360 0.062500 10.783000
O 6.146584 14.392709 9.200955 -0.794175 -0.904560 -2.872101 1.000000 -21.566000
H 5.935550 14.578518 9.049963 -2.769481 -13.076824 10.184514 0.062500 10.783000
H 10.612683 1.371866 14.707655 -3.345763 -0.629291 -11.223723 0.062500 10.783000
O 10.904015 1.228933 14.673810 -1.934587 -0.596087 -0.876314 1.000000 -21.566000
H 11.117752 1.292609 0.175071 0.035716 4.014150 -2.611155 0.062500 10.783000
H 13.626139 1.971412 0.996301 8.862206 -6.531538 -3.960784 0.062500 10.783000
O 13.618572 2.190263 0.756103 0.477244 1.412028 0.596626 1.000000 -21.566000
H 13.734459 2.466485 0.872685 -9.202179 0.945061 -5.420405 0.062500 10.783000
H 9.262787 12.971134 7.110072 3.553624 -3.777598 -2.548647 0.062500 10.783000
O 9.295588 13.144397 6.846993 2.977821 -1.650895 2.594307 1.000000 -21.566000
H 9.010743 13.262073 6.818831 -4.091784 -1.653668 -6.977314 0.062500 10.783000
H 10.498346 3.465543 9.840200 17.584632 14.465293 -10.923619 0.062500 10.783000
O 10.788816 3.330211 9.749395 0.655219 -0.695642 -1.201313 1.000000 -21.566000
H 11.047801 3.422542 9.920248 3.597481 -7.746073 -4.740590 0.062500 10.783000
H 11.751781 0.695390 11.386405 19.606190 3.314897 -16.647939 0.062500 10.783000
O 12.022326 0.598432 11.538286 2.001092 -1.656102 -1.011823 1.000000 -21.566000
H 11.920625 0.430807 11.807500 -12.148848 -10.119559 6.328964 0.062500 10.783000
H 13.179313 13.438723 11.091172 -5.733694 -2.276623 -9.009206 0.062500 10.783000
O 13.050413 13.165716 11.007016 1.998632 -1.579689 3.962161 1.000000 -21.566000
H 12.856768 13.194792 10.755091 24.591468 -7.345366 -11.277453 0.062500 10.783000
H 14.710048 1.045886 13.715505 -1.432610 -1.675816 -7.032342 0.062500 10.783000
O 0.293194 0.980373 13.684911 -1.178015 -3.604383 2.005031 1.000000 -21.566000
H 0.445542 1.235137 13.797360 8.299380 -0.176948 -9.161802 0.062500 10.783000
H 1.903635 2.019651 1.196582 2.061199 11.290511 7.798313 0.062500 10.783000
O 2.143695 2.034128 0.993302 2.693475 0.765037 -2.422353 1.000000 -21.566000
H 2.399002 1.985766 1.169931 -6.941397 -8.944980 0.124527 0.062500 10.783000
H 2.759307 1.171737 11.969068 -5.597922 -9.164065 2.904721 0.062500 10.783000
O 2.761218 1.135531 12.283891 -0.942422 -2.142861 -0.513914 1.000000 -21.566000
H 2.462030 1.214104 12.386284 1.667660 -5.079692 4.666776 0.062500 10.783000
H 3.365283 4.046832 3.428180 0.754686 -3.735939 4.599590 0.062500 10.783000
O 3.555203 3.863641 3.243892 1.131084 1.446018 -3.865639 1.000000 -21.566000
H 3.845184 3.892463 3.365859 2.942238 -4.698477 -2.114888 0.062500 10.783000
H 8.757393 14.395069 5.488012 -1.062878 11.432650 -13.514631 0.062500 10.783000
O 8.438331 14.409910 5.462441 -1.411074 -2.498221 -3.285343 1.000000 -21.566000
H 8.384565 14.416770 5.786181 -2.513091 2.561521 7.165747 0.062500 10.783000
H 12.724915 5.294768 13.626865 -0.380663 11.964176 3.675124 0.062500 10.783000
O 13.029109 5.380678 13.554901 -1.530528 3.648799 -0.400967 1.000000 -21.566000
H 13.205697 5.237734 13.785535 -0.639548 12.788464 12.570723 0.062500 10.783000
H 2.958437 5.813999 12.349017 2.315227 -0.899416 -17.588029 0.062500 10.783000
O 3.271426 5.830999 12.389161 -1.529901 2.839879 0.324447 1.000000 -21.566000
H 3.275307 5.707963 12.680633 -3.966345 -1.091129 7.354052 0.062500 10.783000
H 7.208233 2.219910 8.447778 -13.759043 -4.247603 -5.686555 0.062500 10.783000
O 7.255888 2.261699 8.773609 0.602496 -2.930951 2.474887 1.000000 -21.566000
H 7.508556 2.091933 8.799205 12.275088 -2.881495 -4.576255 0.062500 10.783000
H 5.979666 1.027026 8.937758 10.401718 1.795689 -11.089081 0.062500 10.783000
O 6.205043 1.081425 9.154306 0.467957 0.355531 -0.908306 1.000000 -21.566000
H 6.255315 1.382797 9.232156 9.233476 -0.933711 -8.125111 0.062500 10.783000
H 9.609138 5.527032 8.301370 1.609559 -4.145725 -1.164362 0.062500 10.783000
O 9.432871 5.767418 8.172043 -1.247395 1.220986 -1.762155 1.000000 -21.566000
H 9.591811 6.022928 8.295043 2.246803 1.056264 -8.694026 0.062500 10.783000
H 8.147802 0.878031 13.348655 17.914192 5.135098 8.753946 0.062500 10.783000
O 8.128173 0.739282 13.046512 -1.976541 3.265620 1.313528 1.000000 -21.566000
H 7.837663 0.712391 12.909761 7.296769 -10.474329 -4.895580 0.062500 10.783000
H 9.949723 3.469330 10.405277 -22.757330 10.677881 -9.625642 0.062500 10.783000
O 10.055982 3.505760 10.096188 -3.235769 3.274367 -0.218787 1.000000 -21.566000
H 9.787499 3.475706 9.902726 -10.323738 4.806214 -9.136432 0.062500 10.783000
H 9.692329 4.704191 11.595193 -2.145873 4.824880 2.169510 0.062500 10.783000
O 9.716367 5.010568 11.517478 0.765736 -1.655827 -0.233426 1.000000 -21.566000
H 9.941369 5.056128 11.313209 -5.566409 -14.138277 -3.426963 0.062500 10.783000
H 11.667646 0.735430 9.534630 -1.490617 5.209174 -8.430715 0.062500 10.783000
O 11.388370 0.602199 9.487939 0.982191 -2.175104 -2.934439 1.000000 -21.566000
H 11.204115 0.822127 9.377504 0.736607 -15.280230 4.702972 0.062500 10.783000
H 1.276550 1.995516 11.833654 -2.976614 13.693961 -8.960564 0.062500 10.783000
O 1.485354 1.999284 11.588583 3.306890 0.061154 1.408845 1.000000 -21.566000
H 1.606295 2.303440 11.556484 13.897761 -0.519087 -9.473678 0.062500 10.783000
H 1.788831 14.327496 10.489035 -0.679338 -10.360458 -0.238994 0.062500 10.783000
O 1.517789 14.447284 10.334433 -0.279432 1.620463 -0.635851 1.000000 -21.566000
H 1.251885 14.318107 10.502112 4.866964 -0.858544 -7.063759 0.062500 10.783000
H 11.216751 4.077259 10.321648 -9.702978 5.567653 -9.310820 0.062500 10.783000
O 11.289311 3.770042 10.358386 -5.043152 1.786469 0.904384 1.000000 -21.566000
H 11.428252 3.709275 10.639486 4.537214 -8.060230 -1.650317 0.062500 10.783000
H 0.151926 5.938515 13.350592 1.718928 -2.945288 10.443615 0.062500 10.783000
O 14.605039 5.815473 13.235239 1.309588 0.376293 -2.568569 1.000000 -21.566000
H 14.462239 6.067516 13.100412 6.918010 -3.731144 -14.303645 0.062500 10.783000
H 0.026652 12.255710 9.481293 12.653994 -2.395765 1.445958 0.062500 10.783000
O 14.592486 12.524050 9.503086 -3.103837 -0.125067 -1.020660 1.000000 -21.566000
H 0.001345 12.714697 9.701972 -7.454988 -2.611948 8.853260 0.062500 10.783000
H 8.985880 8.376636 12.748256 -9.004765 -3.643239 -4.485738 0.062500 10.783000
O 8.963338 8.681257 12.647656 -4.388981 1.488426 0.587541 1.000000 -21.566000
H 9.259806 8.803659 12.736026 -0.026034 10.838595 0.587290 0.062500 10.783000
H 5.470452 9.613501 12.874791 1.544300 11.639832 -6.885504 0.062500 10.783000
O 5.156406 9.582002 12.964516 -0.178214 -2.841383 0.078279 1.000000 -21.566000
H 4.995788 9.849516 12.957286 14.367600 5.320078 -3.400927 0.062500 10.783000
H 7.963258 14.402049 1.133894 -1.962706 -0.507173 -2.271433 0.062500 10.783000
O 8.279866 14.450839 1.109052 1.968834 0.495826 -0.746716 1.000000 -21.566000
H 8.412315 14.439956 1.396077 -4.316485 12.467131 -8.322018 0.062500 10.783000
H 7.368111 14.354359 7.932937 -1.036853 -23.124146 -5.683320 0.062500 10.783000
O 7.227529 14.199616 8.185509 -0.664103 0.189664 -1.754752 1.000000 -21.566000
H 7.070692 14.418153 8.353021 -0.745844 -8.263607 4.281348 0.062500 10.783000
H 6.452420 12.763258 10.758008 -2.968159 1.529027 -14.843323 0.062500 10.783000
O 6.346574 12.784543 10.468778 -3.426062 -0.779738 -0.060676 1.000000 -21.566000
H 6.589259 12.894183 10.283431 -4.838726 2.997604 2.959400 0.062500 10.783000
H 6.628716 0.014377 11.950793 0.786157 -0.684402 4.801177 0.062500 10.783000
O 6.776975 0.168143 11.709809 -0.041665 1.671212 1.309184 1.000000 -21.566000
H 6.916213 14.682840 11.536580 -1.986012 6.714926 -6.618738 0.062500 10.783000
H 14.233587 4.483671 13.587297 5.405308 13.510112 8.916414 0.062500 10.783000
O 14.113444 4.301164 13.815993 -2.370636 3.670936 1.246874 1.000000 -21.566000
H 13.890054 4.480605 13.935710 7.897257 -1.683654 -14.935210 0.062500 10.783000
H 13.337093 1.676859 12.537538 -18.309783 8.191877 -11.583570 0.062500 10.783000
O 13.228424 1.537600 12.814375 0.590192 1.784620 -0.208625 1.000000 -21.566000
H 13.136663 1.775206 13.000401 6.125294 -3.582106 2.540921 0.062500 10.783000
H 11.226680 0.982669 10.795026 -3.491740 -6.586139 -11.904497 0.062500 10.783000
O 11.268361 0.935915 11.113384 2.597004 -0.394354 2.287199 1.000000 -21.566000
H 11.004107 0.775964 11.199056 -2.679302 12.012496 -11.441188 0.062500 10.783000
H 11.121674 0.795138 10.179414 -3.410894 -4.257036 6.550435 0.062500 10.783000
O 11.060483 1.075585 10.342078 -0.970970 0.082002 -3.026200 1.000000 -21.566000
H 11.046708 1.323734 10.128983 8.473974 0.202382 -4.494365 0.062500 10.783000
H 12.787987 4.886884 12.428584 -3.990121 -2.557623 7.391371 0.062500 10.783000
O 12.981040 5.149866 12.451486 -2.353453 -0.978102 -0.872693 1.000000 -21.566000
H 12.844956 5.316248 12.679386 2.809429 -5.209763 -2.808644 0.062500 10.783000
H 10.014542 14.704627 12.012935 -0.451905 -9.581223 3.675199 0.062500 10.783000
O 10.329741 14.659231 12.035806 -2.953364 2.136839 -2.491951 1.000000 -21.566000
H 10.374929 14.422012 12.275074 -0.008114 -2.046643 -1.719999 0.062500 10.783000
H 12.015532 12.475832 9.668511 6.525623 5.442166 -5.637884 0.062500 10.783000
O 11.863309 12.517428 9.383469 0.469064 -1.671263 -0.455304 1.000000 -21.566000
H 12.036400 12.439284 9.125933 3.672120 7.319720 0.624938 0.062500 10.783000
H 3.523222 2.893079 13.193385 6.470501 0.536203 6.071023 0.062500 10.783000
O 3.684740 2.636839 13.111082 -3.894198 3.871215 -1.287939 1.000000 -21.566000
H 3.467334 2.443002 12.977388 7.333592 1.821207 -3.973404 0.062500 10.783000
H 4.922570 0.666862 0.026136 -14.459127 -3.107581 1.228976 0.062500 10.783000
O 4.785625 0.503434 0.260138 -1.075806 0.140676 3.535866 1.000000 -21.566000
H 4.690222 0.698060 0.512634 -0.637386 9.725756 10.166336 0.062500 10.783000
H 4.593310 1.949618 7.717402 -3.853174 -7.083326 -0.733770 0.062500 10.783000
O 4.361648 2.161743 7.640159 -2.255797 -1.832114 0.941698 1.000000 -21.566000
H 4.154254 1.988959 7.458031 -5.379261 -4.557218 -8.306460 0.062500 10.783000
H 1.908576 8.342982 12.987407 -5.719475 5.571483 -9.338598 0.062500 10.783000
O 1.781968 8.082557 13.116075 -0.806713 -0.341163 0.368815 1.000000 -21.566000
H 2.018718 7.851680 13.079356 8.768566 7.899218 -0.567473 0.062500 10.783000
H 7.633556 5.752806 12.770034 8.414218 -0.565183 6.356780 0.062500 10.783000
O 7.508996 5.484891 12.655902 2.114704 0.456913 -1.223022 1.000000 -21.566000
H 7.218153 5.445568 12.803519 3.640757 10.080961 -3.770317 0.062500 10.783000
H 4.621271 5.087542 14.726380 7.652010 -0.503521 10.864169 0.062500 10.783000
O 4.591059 4.830889 14.543331 2.111523 2.951250 2.309831 1.000000 -21.566000
H 4.306520 4.851760 14.379424 4.324270 14.411440 6.269410 0.062500 10.783000
H 6.614108 1.102102 7.435126 6.471200 13.511297 -8.254189 0.062500 10.783000
O 6.602948 1.099836 7.118125 3.291028 0.275271 2.292377 1.000000 -21.566000
H 6.295431 1.120059 7.016104 -0.671684 -10.687767 4.649002 0.062500 10.783000
H 7.664624 3.202659 8.652136 -1.028017 -0.806383 13.309848 0.062500 10.783000
O 7.928568 3.038496 8.707702 2.815440 -4.248250 1.444823 1.000000 -21.566000
H 7.858232 2.749242 8.681420 -1.628992 11.398835 -4.305735 0.062500 10.783000
H 11.481009 5.231102 11.226942 -4.292152 4.791164 -5.755335 0.062500 10.783000
O 11.472883 5.551972 11.258519 -0.841714 -2.218653 -0.087348 1.000000 -21.566000
H 11.305088 5.741210 11.063221 7.256117 5.303551 -11.944865 0.062500 10.783000
H 11.257421 2.770200 13.338511 2.678888 -2.563752 -9.346888 0.062500 10.783000
O 11.084461 2.661045 13.092566 -2.148062 0.082208 1.943571 1.000000 -21.566000
H 11.163055 2.858086 12.847827 -4.081627 3.141237 -8.338191 0.062500 10.783000
H 11.048673 4.448512 11.404315 -17.389957 4.085939 -8.555107 0.062500 10.783000
O 10.763207 4.427204 11.549995 -1.782766 -0.830383 1.173904 1.000000 -21.566000
H 10.586739 4.306905 11.327675 4.499500 1.143522 -2.757394 0.062500 10.783000
H 0.078530 5.524712 8.730660 9.048753 -11.690257 -6.304434 0.062500 10.783000
O 0.070149 5.719399 8.476114 1.217592 -2.108584 1.708077 1.000000 -21.566000
H 14.502403 5.730828 8.362128 1.718197 -9.437883 -9.351807 0.062500 10.783000
H 1.646945 3.032372 11.731394 17.298620 11.280985 0.439428 0.062500 10.783000
O 1.883424 2.870054 11.828173 -0.259404 -2.350997 1.222325 1.000000 -21.566000
H 1.831637 2.823345 12.144080 -7.653978 -4.777783 9.202409 0.062500 10.783000
H 6.055985 3.432013 13.192355 -6.698856 -15.245511 4.588419 0.062500 10.783000
O 5.783743 3.584556 13.140181 -2.153570 2.523808 -0.311536 1.000000 -21.566000
H 5.588233 3.491813 13.375591 3.769692 -6.744485 0.453714 0.062500 10.783000
H 14.078219 13.822920 9.596589 1.896797 6.501312 3.698559 0.062500 10.783000
O 14.391796 13.819118 9.489297 0.024020 -2.815401 -2.666447 1.000000 -21.566000
H 14.424954 13.522674 9.376714 8.533435 13.100934 -8.585711 0.062500 10.783000
H 6.343362 3.380917 11.791596 9.660972 19.095257 -6.066521 0.062500 10.783000
O 6.326471 3.333580 12.112890 -0.337517 -2.212922 0.711065 1.000000 -21.566000
H 6.074995 3.501858 12.190066 -1.876864 -0.903305 -6.721049 0.062500 10.783000
H 5.814421 5.505790 11.345198 2.458526 20.671229 9.932906 0.062500 10.783000
O 5.597565 5.285920 11.457007 -0.775886 0.652772 0.384634 1.000000 -21.566000
H 5.430472 5.200684 11.208531 -8.043268 7.755799 3.387889 0.062500 10.783000
H 4.483945 6.010520 11.507253 -11.699820 -3.684522 -4.686065 0.062500 10.783000
O 4.620895 6.217707 11.702574 1.680227 -0.462839 -2.878441 1.000000 -21.566000
H 4.868234 6.323903 11.530359 -1.213656 -1.863353 -10.150612 0.062500 10.783000
H 3.003672 9.700965 14.086743 1.903992 -3.902205 5.595276 0.062500 10.783000
O 2.899818 9.397154 14.103879 -3.477054 -1.273083 1.349236 1.000000 -21.566000
H 2.641199 9.399709 13.929622 3.943413 -4.271167 -3.829806 0.062500 10.783000
H 8.484561 5.149747 14.513383 3.538150 7.096915 1.186107 0.062500 10.783000
O 8.783514 5.214567 14.429991 -1.982329 0.963339 0.574943 1.000000 -21.566000
H 8.728100 5.398083 14.165146 -13.781232 1.401114 5.651314 0.062500 10.783000
H 5.741116 4.757231 11.613291 7.618173 4.776011 -8.738972 0.062500 10.783000
O 5.762295 4.449208 11.520312 0.271693 -1.894542 0.884057 1.000000 -21.566000
H 5.816702 4.256720 11.771678 19.655873 7.902560 6.123059 0.062500 10.783000
H 3.531656 12.860857 8.780136 -5.954080 11.673041 3.084724 0.062500 10.783000
O 3.557153 12.827639 9.113472 -1.946504 -1.645716 3.037869 1.000000 -21.566000
H 3.704944 12.559467 9.209759 -3.426699 0.072156 1.671726 0.062500 10.783000
H 8.851960 2.498158 6.735787 9.844085 -0.773815 0.247405 0.062500 10.783000
O 8.868315 2.758126 6.905125 2.866360 -1.448661 -0.211279 1.000000 -21.566000
H 8.762025 2.724863 7.197871 5.698151 3.213693 -0.962206 0.062500 10.783000
H 9.039423 2.857429 13.574212 12.325738 2.755170 -3.558068 0.062500 10.783000
O 9.001525 2.748385 13.274327 0.543897 1.642309 -0.905032 1.000000 -21.566000
H 8.803532 2.514780 13.259713 -6.167818 2.709058 -9.407721 0.062500 10.783000
H 9.852571 0.074308 10.464430 -0.635574 6.833456 2.234816 0.062500 10.783000
O 9.570128 0.202276 10.556850 -0.084278 -0.779397 -3.013396 1.000000 -21.566000
H 9.632902 0.515799 10.622125 -8.298192 15.394903 3.267536 0.062500 10.783000
H 10.303767 4.818946 14.043047 3.570474 6.427266 -1.693208 0.062500 10.783000
O 10.317761 4.593216 13.810611 1.159928 3.861215 -0.633336 1.000000 -21.566000
H 10.144317 4.697749 13.562672 4.290303 -12.179144 -5.896412 0.062500 10.783000
H 1.448339 4.026163 9.633704 0.057001 4.886575 5.826329 0.062500 10.783000
O 1.456549 3.718885 9.573084 -1.362881 -2.542240 0.175730 1.000000 -21.566000
H 1.151936 3.647240 9.647696 -1.210162 1.830151 -8.816190 0.062500 10.783000
H 11.571122 8.186532 10.562968 8.487167 -6.345460 -15.791405 0.062500 10.783000
O 11.616066 7.896406 10.716812 1.884412 -3.403992 -1.406568 1.000000 -21.566000
H 11.735534 7.924723 11.021324 -8.839686 -1.782666 -1.888432 0.062500 10.783000
H 3.799780 1.343794 7.060887 -0.176999 6.576222 2.666504 0.062500 10.783000
O 3.909771 1.635507 7.083341 -0.445950 -0.411252 0.344677 1.000000 -21.566000
H 3.758265 1.802645 6.858614 6.585200 -5.224080 11.355954 0.062500 10.783000
H 0.913090 2.786677 10.576681 -4.463626 18.180137 -13.715978 0.062500 10.783000
O 0.862524 3.031096 10.764728 -0.281937 1.351829 -0.635360 1.000000 -21.566000
H 1.092809 3.231434 10.662315 -1.721848 2.245864 3.973539 0.062500 10.783000
H 2.107727 4.992539 9.441552 -8.907388 -6.814738 -1.172752 0.062500 10.783000
O 2.352560 5.120797 9.627132 1.910825 2.840231 -1.589617 1.000000 -21.566000
H 2.383572 4.912681 9.867622 -10.080657 7.963847 3.216591 0.062500 10.783000
H 8.594201 11.482811 9.793663 -2.479018 -1.171553 4.738064 0.062500 10.783000
O 8.502894 11.673389 9.546848 1.505651 -3.152205 -1.622173 1.000000 -21.566000
H 8.629012 11.558570 9.257636 2.151015 -6.665735 -7.177032 0.062500 10.783000
H 14.630007 5.744294 12.503882 -7.749270 -4.269666 3.934968 0.062500 10.783000
O 14.708154 5.891328 12.228208 2.915747 -0.210222 -0.364389 1.000000 -21.566000
H 14.670214 6.207072 12.262462 -5.464612 9.408147 -0.124315 0.062500 10.783000
H 5.069752 3.630460 12.164763 7.056323 0.872080 -7.930032 0.062500 10.783000
O 4.948174 3.924289 12.204735 -0.963641 -0.081596 -1.652690 1.000000 -21.566000
H 4.972770 4.098281 11.937180 -1.791817 7.305549 4.715258 0.062500 10.783000
H 7.208891 6.982644 2.015322 -1.060333 5.524171 -11.547429 0.062500 10.783000
O 7.215503 6.836154 1.732056 -1.635353 -1.907627 1.285400 1.000000 -21.566000
H 7.108382 6.542218 1.721792 3.427521 -10.879237 -0.437015 0.062500 10.783000
H 6.690147 0.700497 1.322370 2.475482 -7.091605 7.570245 0.062500 10.783000
O 6.923685 0.914276 1.388161 0.973966 2.409432 1.215819 1.000000 -21.566000
H 6.833220 1.222762 1.328300 20.259645 5.644653 -5.002223 0.062500 10.783000
H 10.839166 2.133787 1.215767 -6.546569 -2.073063 -0.317708 0.062500 10.783000
O 10.785208 2.100255 1.526654 4.898999 1.204277 1.151066 1.000000 -21.566000
H 10.606506 2.344201 1.612158 -4.933508 2.157480 -6.819381 0.062500 10.783000
H 3.563081 1.887896 11.524183 2.196585 -8.054470 3.607931 0.062500 10.783000
O 3.751206 1.864125 11.786607 -1.236969 -2.833677 -1.057023 1.000000 -21.566000
H 3.928945 2.145028 11.823883 -9.728528 0.733732 5.449216 0.062500 10.783000
H 10.653740 8.389316 11.930501 12.709084 -1.399368 -1.721366 0.062500 10.783000
O 10.829324 8.601399 11.770479 -1.222322 3.445455 0.990093 1.000000 -21.566000
H 10.640357 8.834561 11.674388 2.542437 -4.869634 -7.838731 0.062500 10.783000
H 6.275928 7.315022 13.523226 7.945237 -7.658258 -8.491015 0.062500 10.783000
O 6.513198 7.332572 13.749917 -3.312981 -0.773438 1.755689 1.000000 -21.566000
H 6.486891 7.047628 13.890114 11.231630 -15.285761 2.900402 0.062500 10.783000
H 0.983680 5.251596 14.326467 2.118627 3.135728 -6.062446 0.062500 10.783000
O 1.298380 5.199263 14.293951 -1.031716 1.884523 0.198678 1.000000 -21.566000
H 1.446208 5.261089 14.566806 4.679436 -5.715237 -8.524044 0.062500 10.783000
H 9.518740 3.958997 11.935480 -2.380834 -1.523370 -1.179795 0.062500 10.783000
O 9.623051 4.269921 11.894893 4.133200 -4.090081 -0.927326 1.000000 -21.566000
H 9.347271 4.423732 11.916217 -2.623591 -4.031564 -0.383900 0.062500 10.783000
H 2.079120 3.020207 10.056415 12.604258 3.522146 6.855176 0.062500 10.783000
O 1.933432 2.825388 10.260176 4.482307 1.144944 -0.016934 1.000000 -21.566000
H 1.877906 3.022365 10.510724 12.580089 -9.036207 3.787622 0.062500 10.783000
H 0.498890 7.915969 11.825023 -0.118264 4.764732 7.284165 0.062500 10.783000
O 0.386494 8.170451 11.977003 -1.262007 1.001906 -0.987977 1.000000 -21.566000
H 0.255237 8.387094 11.780306 -3.584733 -6.305845 1.306578 0.062500 10.783000
H 12.500345 3.313830 0.717317 3.888408 3.732276 -3.771727 0.062500 10.783000
O 12.785896 3.208439 0.795567 1.510308 1.555334 3.021340 1.000000 -21.566000
H 12.813047 3.264908 1.114091 7.130406 -0.029120 4.696113 0.062500 10.783000
H 12.608197 3.497770 11.166637 5.498504 -6.212890 9.906513 0.062500 10.783000
O 12.723007 3.764790 11.287051 -0.589234 -0.200916 1.635726 1.000000 -21.566000
H 13.033935 3.679601 11.327954 -11.912495 -1.254155 -8.655915 0.062500 10.783000
H 10.473277 4.428418 12.506979 -6.761226 9.964402 13.264034 0.062500 10.783000
O 10.758106 4.479298 12.380157 -2.860068 -0.693825 5.587053 1.000000 -21.566000
H 10.715660 4.476797 12.045771 2.946734 2.703720 3.996948 0.062500 10.783000
H 1.882023 12.738655 12.545989 5.113074 -1.926542 -3.471367 0.062500 10.783000
O 2.025607 12.861963 12.819311 0.227581 -1.345781 -0.779240 1.000000 -21.566000
H 1.826910 12.986484 13.052247 -6.556168 4.400551 7.013623 0.062500 10.783000
H 7.249262 2.618366 9.517652 5.436193 -6.983959 11.673332 0.062500 10.783000
O 6.980830 2.588116 9.688358 0.122458 1.718844 0.157539 1.000000 -21.566000
H 7.069389 2.577884 9.987156 7.933286 3.189742 -3.707263 0.062500 10.783000
H 5.146745 3.658281 0.143068 -7.056896 -19.917595 -3.386116 0.062500 10.783000
O 5.285960 3.406788 14.722568 3.360924 -1.095911 -3.146708 1.000000 -21.566000
H 5.113164 3.140592 14.697492 13.297111 -4.290247 -1.777237 0.062500 10.783000
H 10.796417 5.028904 12.241711 -0.585359 25.470176 -4.432874 0.062500 10.783000
O 10.860091 5.320318 12.141830 1.970054 2.073760 -2.236418 1.000000 -21.566000
H 10.839797 5.303821 11.824522 1.115909 6.613914 -2.232849 0.062500 10.783000
H 8.443761 1.045380 11.088825 4.527743 8.548910 -5.323134 0.062500 10.783000
O 8.632445 0.902262 11.316376 1.467507 0.596702 -3.605850 1.000000 -21.566000
H 8.932851 0.920159 11.206184 -4.079632 4.185438 -2.668059 0.062500 10.783000
H 12.079623 6.543161 11.808711 -22.612075 -7.009795 -4.912933 0.062500 10.783000
O 12.147362 6.607192 11.494856 -0.391393 2.555595 0.406689 1.000000 -21.566000
H 11.878282 6.521797 11.352257 -3.862793 -8.155601 -6.568922 0.062500 10.783000
H 10.331053 13.702450 12.055402 17.353151 -3.212550 0.695672 0.062500 10.783000
O 10.389997 13.572830 11.768059 0.046292 -1.378970 -2.855300 1.000000 -21.566000
H 10.232913 13.689850 11.510936 -13.288406 -1.431760 15.779459 0.062500 10.783000
H 10.842179 4.962629 13.214190 1.753219 -2.089710 -1.896722 0.062500 10.783000
O 11.101329 5.082541 13.367510 -1.058918 -0.236660 -0.147775 1.000000 -21.566000
H 11.185408 4.874519 13.590758 4.100052 -0.362772 6.651816 0.062500 10.783000
H 9.667387 2.316243 0.922203 -0.794336 8.155866 -3.638363 0.062500 10.783000
O 9.844157 2.077055 1.045942 -1.344491 1.094117 3.820720 1.000000 -21.566000
H 9.818685 2.110384 1.365234 -7.648343 -13.638191 10.585164 0.062500 10.783000
H 9.175471 11.399130 10.251826 0.827070 -5.200961 0.738180 0.062500 10.783000
O 9.444759 11.556343 10.302257 -2.962845 -3.871785 1.324883 1.000000 -21.566000
H 9.618783 11.598534 10.033372 5.574455 4.328166 -0.247617 0.062500 10.783000
H 1.034217 10.689948 8.390090 1.263636 3.839727 -3.588917 0.062500 10.783000
O 0.863380 10.404164 8.415523 -0.178942 -4.970545 -1.025335 1.000000 -21.566000
H 0.700489 10.307579 8.159565 3.809357 4.361494 -3.306169 0.062500 10.783000
H 2.257369 1.785610 8.999239 -4.658339 -9.778553 9.823966 0.062500 10.783000
O 2.089819 2.040697 9.107371 0.580308 -1.994844 2.284604 1.000000 -21.566000
H 1.938181 1.946548 9.361459 12.506607 -3.324871 -2.400309 0.062500 10.783000
H 14.520164 8.149505 0.349837 -3.719892 16.313526 1.200116 0.062500 10.783000
O 0.069203 8.277560 0.354361 1.214892 0.134978 -0.267271 1.000000 -21.566000
H 0.192754 8.324282 0.067176 6.473140 -13.716319 1.518797 0.062500 10.783000
H 10.764925 8.171486 1.177041 3.672303 -1.836731 2.470337 0.062500 10.783000
O 10.884341 8.221046 1.473839 1.558241 -0.926093 -0.693345 1.000000 -21.566000
H 11.180005 8.081328 1.452002 -5.332930 10.014446 -0.134098 0.062500 10.783000
H 4.459673 0.010992 14.221838 3.072279 -3.214008 -6.365766 0.062500 10.783000
O 4.756160 14.729652 14.101293 -1.821695 -1.413786 -1.043659 1.000000 -21.566000
H 4.880070 0.262915 14.209545 -1.582214 3.890538 5.800900 0.062500 10.783000
H 11.986180 6.074903 0.948283 0.766259 6.121449 0.054066 0.062500 10.783000
O 12.238442 5.904389 0.895499 0.170245 -1.336190 3.199538 1.000000 -21.566000
H 12.484080 6.092556 0.805355 -4.127590 16.673322 -10.163844 0.062500 10.783000
H 5.038502 5.285309 14.005180 -5.471386 9.949049 -4.593581 0.062500 10.783000
O 4.837882 5.265679 13.752987 -0.880614 2.421149 1.826567 1.000000 -21.566000
H 4.673880 5.002271 13.790910 10.517004 -0.730609 -2.713593 0.062500 10.783000
H 3.102126 1.928744 0.899573 3.716895 8.157764 -3.556026 0.062500 10.783000
O 3.058326 2.033438 1.188885 1.986746 0.482970 0.970501 1.000000 -21.566000
H 3.076918 2.347821 1.135734 -10.646913 -10.763904 2.849580 0.062500 10.783000
H 6.236747 13.279396 0.516605 8.497160 -1.011820 15.151744 0.062500 10.783000
O 6.253946 13.244360 0.830643 0.844160 -3.605734 0.731593 1.000000 -21.566000
H 5.960822 13.291799 0.947638 2.785555 -8.973213 4.328992 0.062500 10.783000
H 7.999237 5.550916 1.253141 -2.902214 -3.479693 11.195338 0.062500 10.783000
O 7.789437 5.447391 1.463865 -0.047198 1.294861 0.895471 1.000000 -21.566000
H 7.508555 5.408895 1.325014 -5.807250 -10.934018 7.970059 0.062500 10.783000
H 10.362049 2.938712 1.516891 -0.548528 7.013302 2.529580 0.062500 10.783000
O 10.364538 3.160021 1.278716 -5.520377 -0.583149 1.069417 1.000000 -21.566000
H 10.113568 3.356683 1.306541 0.524274 2.670418 -11.673398 0.062500 10.783000
H 10.583284 6.616425 13.847157 -2.292663 -10.968163 -6.751453 0.062500 10.783000
O 10.469287 6.886300 13.975055 0.372915 -2.207854 0.884715 1.000000 -21.566000
H 10.706748 7.099139 14.000586 -5.091016 13.740283 0.004169 0.062500 10.783000
H 8.191435 8.033825 10.808233 -3.595175 6.103017 2.036140 0.062500 10.783000
O 8.172586 8.109457 10.500361 -0.665628 -1.147531 0.916055 1.000000 -21.566000
H 8.409626 8.313796 10.431866 7.493576 10.226746 1.683767 0.062500 10.783000
H 14.139821 9.201721 12.591722 -1.937458 13.655338 14.696587 0.062500 10.783000
O 13.919475 9.076322 12.794727 -0.845040 -2.916588 -2.597039 1.000000 -21.566000
H 14.099359 8.869647 12.991074 4.700887 16.537852 17.328589 0.062500 10.783000
H 2.754033 6.409537 2.439861 -2.505761 3.466854 7.538705 0.062500 10.783000
O 2.904056 6.480932 2.702329 0.742303 0.897911 0.000936 1.000000 -21.566000
H 3.182965 6.315559 2.657206 5.021544 8.458052 -15.382794 0.062500 10.783000
H 11.031465 14.510703 12.913712 -0.980736 -19.325345 2.745547 0.062500 10.783000
O 11.158165 14.484387 12.615111 -0.316847 -0.233292 -3.624088 1.000000 -21.566000
H 11.166713 14.158557 12.555475 -4.608075 11.025777 0.211667 0.062500 10.783000
H 1.806176 9.071410 12.508656 -13.187516 -2.981771 -1.046582 0.062500 10.783000
O 1.679066 8.913905 12.744889 1.748652 -1.019536 -1.792909 1.000000 -21.566000
H 1.432245 8.841638 12.550384 8.416562 -2.805336 -0.523230 0.062500 10.783000
H 1.359742 7.357807 10.104661 1.556515 0.942986 -3.295051 0.062500 10.783000
O 1.328282 7.208516 9.822807 0.572751 1.354153 0.455278 1.000000 -21.566000
H 1.003818 7.188377 9.778503 11.101699 -6.291444 -7.071642 0.062500 10.783000
H 11.742989 1.175973 13.078690 5.811270 -7.100488 -5.253581 0.062500 10.783000
O 11.757698 1.011573 12.799997 -0.678826 0.705354 -1.097633 1.000000 -21.566000
H 12.027206 1.140163 12.652933 14.199022 4.891196 7.235370 0.062500 10.783000
H 4.638124 2.450277 0.814171 4.044324 8.243962 0.196879 0.062500 10.783000
O 4.368046 2.275650 0.814630 0.471864 2.255757 0.045423 1.000000 -21.566000
H 4.236694 2.344409 1.107390 3.670547 -3.064266 -7.671090 0.062500 10.783000
H 3.061884 4.482481 11.628202 4.482999 8.917080 1.839210 0.062500 10.783000
O 3.226564 4.728985 11.745263 -2.362374 -3.489271 -0.830769 1.000000 -21.566000
H 3.167238 4.715804 12.079538 -8.568065 1.667572 -3.936184 0.062500 10.783000
H 5.892094 4.562028 3.169662 -4.648647 -11.021295 -0.882513 0.062500 10.783000
O 5.984364 4.674172 3.466057 -1.504712 -2.104756 -0.033711 1.000000 -21.566000
H 5.844036 4.475349 3.676435 -1.413634 -1.325212 2.968079 0.062500 10.783000
H 5.411682 7.654393 10.680980 4.986269 3.167878 -8.311633 0.062500 10.783000
O 5.198957 7.421436 10.727610 -2.217207 -0.637456 0.628867 1.000000 -21.566000
H 5.244183 7.170927 10.526500 3.211611 2.896956 -13.331533 0.062500 10.783000
H 5.432766 5.404351 3.274251 -7.643613 -19.159373 -1.729231 0.062500 10.783000
O 5.197547 5.401097 3.049843 -1.709323 2.365341 -3.142302 1.000000 -21.566000
H 4.912714 5.510570 3.120217 6.026942 -2.273597 -5.146127 0.062500 10.783000
H 6.029843 9.667530 11.445722 -1.104886 4.338324 7.426935 0.062500 10.783000
O 6.173276 9.787202 11.179903 -0.367926 0.068812 -0.199172 1.000000 -21.566000
H 5.979939 10.031602 11.127939 18.297167 1.651462 11.950213 0.062500 10.783000
H 11.623856 9.583063 12.416433 13.376951 -4.701139 -0.313818 0.062500 10.783000
O 11.777847 9.823244 12.277158 0.133872 2.872172 4.342561 1.000000 -21.566000
H 11.858645 9.768927 11.971509 3.442420 4.574644 5.216201 0.062500 10.783000
H 12.061693 8.722538 0.354940 -5.637988 6.655564 0.088739 0.062500 10.783000
O 11.870278 8.532937 0.487178 2.611175 -1.169497 1.383474 1.000000 -21.566000
H 11.600503 8.540620 0.306549 4.344241 2.952484 -0.238684 0.062500 10.783000
H 9.814539 7.776093 12.120845 2.591351 11.065537 1.218327 0.062500 10.783000
O 9.491436 7.750218 12.114433 0.461580 -2.357828 -4.085849 1.000000 -21.566000
H 9.423400 7.789612 12.417496 17.938243 -5.954475 -13.944765 0.062500 10.783000
H 10.133114 1.188306 13.999897 11.525219 -12.962371 7.951581 0.062500 10.783000
O 9.980595 1.014874 14.227788 1.807462 -2.022624 1.440755 1.000000 -21.566000
H 9.688706 0.964677 14.085982 -1.650667 1.022716 -1.800038 0.062500 10.783000
H 3.318592 9.319689 11.984074 -15.660795 3.903926 14.018785 0.062500 10.783000
O 3.160700 9.389891 12.236312 0.441785 0.700154 -1.121040 1.000000 -21.566000
H 3.048934 9.684597 12.152110 2.607934 -7.384984 -9.913189 0.062500 10.783000
H 0.828136 7.966557 13.874924 2.340929 4.235503 5.461172 0.062500 10.783000
O 0.707845 7.677672 13.838398 -3.523628 -0.380895 -0.761888 1.000000 -21.566000
H 0.818541 7.490557 14.062940 1.859551 -13.376909 -10.997729 0.062500 10.783000
H 12.179731 7.583574 13.039485 1.543167 6.072479 7.696664 0.062500 10.783000
O 12.012236 7.834094 13.124161 1.780743 -1.858578 -1.218579 1.000000 -21.566000
H 12.161982 8.000452 13.360264 1.953810 -1.547670 -10.086522 0.062500 10.783000
H 6.817316 11.574145 11.830602 0.522422 -0.466059 13.462961 0.062500 10.783000
O 6.633548 11.580690 11.571840 2.619328 -1.154110 1.495023 1.000000 -21.566000
H 6.565219 11.884429 11.524334 10.057524 -1.230561 5.867008 0.062500 10.783000
H 3.256769 5.122331 11.483345 3.695925 10.571939 0.005443 0.062500 10.783000
O 3.274512 5.353661 11.261869 1.245860 -3.371843 2.494789 1.000000 -21.566000
H 3.050927 5.571372 11.344451 -2.573212 0.305451 -17.926554 0.062500 10.783000
H 6.750610 4.947275 3.941124 4.171338 12.905278 5.883017 0.062500 10.783000
O 6.791212 4.841479 3.641830 1.057977 0.144606 -2.855199 1.000000 -21.566000
H 6.500534 4.721534 3.580429 11.431654 -5.162647 1.211574 0.062500 10.783000
H 6.446267 9.577775 7.446928 -12.158765 0.027895 0.382160 0.062500 10.783000
O 6.676825 9.543384 7.235942 -1.293241 -3.088556 3.269009 1.000000 -21.566000
H 6.637513 9.761324 6.990976 7.392818 2.851033 4.559084 0.062500 10.783000
H 7.810169 6.738711 2.256917 -4.150920 10.153339 10.121587 0.062500 10.783000
O 7.821095 6.899868 2.523133 -2.402205 0.888787 0.292497 1.000000 -21.566000
H 8.082901 6.818619 2.688109 1.862357 18.027886 -7.049028 0.062500 10.783000
H 7.024792 2.382170 11.619553 -7.048243 -2.613969 -12.947056 0.062500 10.783000
O 6.877085 2.127989 11.744235 -0.631102 -1.802923 1.673696 1.000000 -21.566000
H 6.976065 1.883027 11.569957 -1.024802 -10.904424 8.481829 0.062500 10.783000
H 6.646040 4.259254 10.112201 2.703436 -16.229631 -8.084646 0.062500 10.783000
O 6.605423 4.577591 10.081082 2.195565 2.176853 -0.103784 1.000000 -21.566000
H 6.655931 4.617750 9.756563 25.980101 12.849100 0.350560 0.062500 10.783000
H 5.649701 6.539772 9.316359 7.208522 0.005053 9.223316 0.062500 10.783000
O 5.777742 6.322380 9.124864 1.530380 -0.550398 3.204880 1.000000 -21.566000
H 5.530150 6.115625 9.019550 0.990924 -5.584877 -5.249583 0.062500 10.783000
H 6.708047 7.050569 11.938730 -5.780373 -3.202940 6.753953 0.062500 10.783000
O 6.540974 6.784136 11.891884 0.058980 -0.793570 2.162217 1.000000 -21.566000
H 6.327593 6.895297 11.683979 -7.062334 -6.688483 9.670899 0.062500 10.783000
H 5.083861 7.487536 11.228644 -20.841704 7.186046 -7.435198 0.062500 10.783000
O 4.940400 7.416549 11.510281 3.935507 -2.439431 -0.272438 1.000000 -21.566000
H 4.634560 7.313041 11.505592 3.775384 -7.573846 1.150004 0.062500 10.783000
H 9.906656 7.803109 11.095756 8.735360 2.727932 7.256386 0.062500 10.783000
O 9.988133 7.538978 10.927129 -1.675296 0.375276 0.558510 1.000000 -21.566000
H 9.741886 7.423832 10.774560 -0.114684 1.570874 1.861545 0.062500 10.783000
H 10.886616 1.287293 12.296912 1.778405 4.477779 0.071718 0.062500 10.783000
O 10.828785 1.457745 12.047489 -1.633356 -0.884592 2.219277 1.000000 -21.566000
H 10.599080 1.328911 11.876074 -11.802495 3.165896 12.847438 0.062500 10.783000
H 0.213270 5.158055 0.462701 1.970233 -8.341450 -1.789805 0.062500 10.783000
O 0.165631 5.246108 0.152031 -1.562171 -0.535143 -1.369780 1.000000 -21.566000
H 14.653109 5.428293 0.205614 -12.135975 -10.573186 -7.714106 0.062500 10.783000
H 3.025946 8.352269 13.415642 -0.123693 13.690017 -1.946417 0.062500 10.783000
O 3.131616 8.265178 13.122311 -0.187539 0.101293 -2.798590 1.000000 -21.566000
H 3.419741 8.133981 13.033691 2.667245 -2.454246 -1.412484 0.062500 10.783000
H 13.109707 10.092435 13.793671 1.713063 -2.912141 -2.922877 0.062500 10.783000
O 13.248876 9.869832 13.970827 1.361432 -0.457471 0.433179 1.000000 -21.566000
H 13.566725 9.929874 13.940894 12.165901 0.062615 -10.995278 0.062500 10.783000
H 10.186503 10.888810 13.731367 2.099957 -3.943535 5.193152 0.062500 10.783000
O 9.910989 10.822873 13.895951 -0.861001 0.809871 -3.051251 1.000000 -21.566000
H 9.990623 10.891381 14.202299 12.727923 -1.017647 2.716736 0.062500 10.783000
H 0.995501 9.515642 13.713269 -5.846198 2.719598 16.488163 0.062500 10.783000
O 0.704156 9.559935 13.583168 1.876133 1.801937 1.173159 1.000000 -21.566000
H 0.486320 9.654382 13.784972 -8.718548 -4.392055 -3.423569 0.062500 10.783000
H 2.069983 6.350684 14.224770 24.805550 -13.700136 8.292179 0.062500 10.783000
O 1.867876 6.111622 14.120668 -0.372792 -1.106433 1.046754 1.000000 -21.566000
H 2.057832 5.865313 14.142588 -7.763815 -8.092887 3.475996 0.062500 10.783000
H 10.804586 11.589573 4.467117 6.809365 1.700839 7.104968 0.062500 10.783000
O 10.942511 11.890622 4.427573 1.499193 0.021765 -1.143914 1.000000 -21.566000
H 10.751485 12.072968 4.604994 3.119328 -3.375105 4.886516 0.062500 10.783000
H 10.809531 7.300010 4.290376 8.118243 -3.943255 7.926042 0.062500 10.783000
O 11.084523 7.443438 4.226311 1.386869 1.118081 -3.068038 1.000000 -21.566000
H 11.297240 7.245456 4.092901 2.682606 4.036593 -6.113446 0.062500 10.783000
H 7.672981 10.033397 12.656906 -5.421128 5.478780 2.056834 0.062500 10.783000
O 7.495776 10.137071 12.899471 0.922156 1.884781 1.606553 1.000000 -21.566000
H 7.615473 9.947577 13.133854 3.764389 7.160791 1.852418 0.062500 10.783000
H 8.818031 8.625516 14.409338 8.604283 7.044849 12.103532 0.062500 10.783000
O 9.117758 8.721569 14.441985 -1.913797 0.959849 -3.614269 1.000000 -21.566000
H 9.130765 9.033786 14.486993 -2.371512 -5.126846 5.141747 0.062500 10.783000
H 8.158218 6.493695 10.094628 -0.677315 -3.822366 -6.289416 0.062500 10.783000
O 8.311382 6.779013 10.172001 -0.477111 3.427670 0.738403 1.000000 -21.566000
H 8.639014 6.715291 10.155429 9.721199 0.227577 7.579798 0.062500 10.783000
H 5.345538 6.790438 10.029411 15.190617 8.563328 -8.458738 0.062500 10.783000
O 5.372767 6.675167 10.335268 3.647800 -0.039579 3.708686 1.000000 -21.566000
H 5.681585 6.734378 10.380365 13.575807 -15.259542 1.866124 0.062500 10.783000
H 0.924489 13.793386 11.572005 11.841149 -7.759471 1.003558 0.062500 10.783000
O 1.170264 13.966288 11.447316 1.750181 -1.351753 2.329515 1.000000 -21.566000
H 1.058491 14.030067 11.158174 4.662146 -1.717347 4.793732 0.062500 10.783000
H 10.613166 12.983260 8.444527 -8.520769 3.869512 -12.636417 0.062500 10.783000
O 10.377646 12.790820 8.505189 1.971592 1.204029 -0.165717 1.000000 -21.566000
H 10.383705 12.590209 8.251673 -6.846521 0.210577 1.796931 0.062500 10.783000
H 12.233560 13.651233 11.980474 -6.808822 -10.313204 -3.188568 0.062500 10.783000
O 11.936271 13.555503 12.034113 -2.152353 0.498056 0.529744 1.000000 -21.566000
H 11.831472 13.525714 11.738102 13.256401 6.694722 -8.216043 0.062500 10.783000
H 0.348137 12.150097 8.405616 0.129842 -5.196107 6.549901 0.062500 10.783000
O 0.209135 11.860105 8.370180 -2.717755 1.132843 1.586090 1.000000 -21.566000
H 0.008872 11.891103 8.135193 21.785670 -11.824426 -3.035085 0.062500 10.783000
H 13.738643 12.581410 8.354489 -0.075426 8.193352 -6.945408 0.062500 10.783000
O 13.689771 12.892616 8.426200 1.580550 2.290426 0.005708 1.000000 -21.566000
H 13.962484 12.977932 8.555787 -13.113509 -10.284287 11.582426 0.062500 10.783000
H 5.462361 11.878047 0.199084 -8.713244 4.757814 2.311477 0.062500 10.783000
O 5.266499 12.096307 0.063606 1.291849 -3.616123 -0.898579 1.000000 -21.566000
H 5.225132 12.041405 14.489616 13.769271 14.443225 -3.179346 0.062500 10.783000
H 6.721860 14.328357 12.314488 9.068492 -23.061200 4.103985 0.062500 10.783000
O 6.409095 14.372305 12.232628 -1.935600 -2.147555 -0.102886 1.000000 -21.566000
H 6.205057 14.391243 12.483779 0.527623 11.261695 5.524941 0.062500 10.783000
H 1.389875 11.295906 11.858296 0.630844 -4.674886 -7.878731 0.062500 10.783000
O 1.168165 11.500905 11.960103 0.644053 -2.847971 -0.604766 1.000000 -21.566000
H 0.883902 11.365834 11.876812 -0.024285 -2.201091 -6.519890 0.062500 10.783000
H 2.579823 6.086296 1.750115 -4.216389 -2.228265 -2.639850 0.062500 10.783000
O 2.438936 6.324864 1.905021 -0.614302 1.036246 0.962607 1.000000 -21.566000
H 2.461969 6.578490 1.716524 -0.652203 6.599997 3.288104 0.062500 10.783000
H 11.894140 11.254310 1.408856 -1.653878 0.404409 -6.572427 0.062500 10.783000
O 11.865885 11.205938 1.099187 -3.356568 0.954853 -2.016247 1.000000 -21.566000
H 12.111036 11.351204 0.942741 1.092375 -1.661565 2.091669 0.062500 10.783000
H 8.199704 8.940123 14.455158 1.347209 4.336534 -9.556513 0.062500 10.783000
O 8.253874 8.639456 14.347214 -0.976238 1.352239 1.374958 1.000000 -21.566000
H 7.961163 8.507949 14.398459 -3.339215 6.281724 2.435701 0.062500 10.783000
H 7.502248 8.113923 0.925785 -15.409682 -9.211433 0.193309 0.062500 10.783000
O 7.722099 7.880738 0.974383 -2.498797 1.073093 -3.411257 1.000000 -21.566000
H 7.492436 7.664965 1.029420 -1.364764 8.680313 4.479707 0.062500 10.783000
H 2.756779 9.489743 0.056259 4.538048 3.688646 0.990249 0.062500 10.783000
O 2.603169 9.683181 0.241621 3.655009 2.967088 1.949446 1.000000 -21.566000
H 2.345591 9.538176 0.377167 3.300547 10.863495 -2.314591 0.062500 10.783000
H 6.046729 4.845106 9.344635 -7.440697 -9.546966 -10.306042 0.062500 10.783000
O 5.769357 4.968534 9.312727 -0.678620 -2.737055 0.981975 1.000000 -21.566000
H 5.535828 4.735527 9.359004 1.048130 5.558915 -12.281416 0.062500 10.783000
H 6.593304 5.073137 11.511617 -3.503885 -12.500806 -4.907776 0.062500 10.783000
O 6.594495 5.281898 11.757604 1.191245 4.080925 -1.586215 1.000000 -21.566000
H 6.729696 5.578249 11.714751 12.297795 2.387453 1.030664 0.062500 10.783000
H 10.054776 11.186619 5.957772 -6.613785 -6.569380 5.895294 0.062500 10.783000
O 10.018448 10.905684 5.813491 0.131096 0.007361 2.903473 1.000000 -21.566000
H 10.299521 10.744533 5.829717 -5.248837 -2.006226 -11.606231 0.062500 10.783000
H 11.364263 11.365912 0.870222 -7.440210 14.651346 7.638418 0.062500 10.783000
O 11.050470 11.388957 0.883840 -0.509160 -0.139929 1.716493 1.000000 -21.566000
H 10.938352 11.681649 0.853621 -6.723052 -7.539933 -1.854073 0.062500 10.783000
H 10.229944 3.733558 2.485272 1.800384 -3.032335 -12.571700 0.062500 10.783000
O 10.012896 3.751105 2.254871 -4.305239 1.128147 -0.593069 1.000000 -21.566000
H 10.078924 4.019724 2.091982 -14.390459 -4.272193 -18.145501 0.062500 10.783000
H 11.596393 0.546432 7.405959 13.234532 -7.938542 -5.512325 0.062500 10.783000
O 11.871616 0.594223 7.568237 0.253822 3.069121 0.827877 1.000000 -21.566000
H 12.042838 0.801811 7.396493 1.096325 -5.254339 14.177332 0.062500 10.783000
H 13.545213 12.978733 7.155821 7.981945 -4.189906 -7.134132 0.062500 10.783000
O 13.443600 12.776762 6.934193 -1.081390 -3.824993 1.218393 1.000000 -21.566000
H 13.642248 12.816111 6.694048 -13.456885 -13.615826 8.705525 0.062500 10.783000
H 12.394311 13.248641 12.877961 7.919787 0.665477 -6.441636 0.062500 10.783000
O 12.272232 13.089519 12.633049 2.087340 -1.096955 1.507360 1.000000 -21.566000
H 12.086988 13.281782 12.430733 -1.366395 13.186697 -6.532299 0.062500 10.783000
H 4.887641 10.062441 11.179382 -2.693022 -2.660953 -7.755303 0.062500 10.783000
O 4.939244 9.764351 11.304310 -3.702397 -1.026209 0.064978 1.000000 -21.566000
H 4.805076 9.553584 11.101625 -9.370302 -5.015093 0.663118 0.062500 10.783000
H 13.271044 8.710103 6.444165 -4.653924 3.368700 4.096616 0.062500 10.783000
O 13.458495 8.613963 6.683564 2.184540 1.697392 -5.890392 1.000000 -21.566000
H 13.343471 8.349692 6.824635 8.608980 3.974611 -18.215396 0.062500 10.783000
H 8.930510 6.891968 8.501805 3.896033 2.263021 7.961812 0.062500 10.783000
O 9.043507 7.071495 8.724992 -1.915929 0.625252 -1.662630 1.000000 -21.566000
H 9.029610 6.923163 9.008733 6.110608 9.316816 5.797199 0.062500 10.783000
H 4.943333 10.183961 10.490554 -7.544718 -7.287398 -0.594331 0.062500 10.783000
O 4.832015 10.422658 10.670751 0.525120 -4.815070 -2.763279 1.000000 -21.566000
H 5.097041 10.612609 10.638403 6.680957 -16.896029 4.223027 0.062500 10.783000
H 4.884371 4.355911 14.361166 1.479263 8.185425 11.131268 0.062500 10.783000
O 4.981200 4.125778 14.135776 0.348442 -4.498050 0.910000 1.000000 -21.566000
H 5.242492 4.274490 13.995437 12.520451 13.452024 4.733908 0.062500 10.783000
H 14.210316 14.387267 0.160696 -3.974002 -11.026190 2.205466 0.062500 10.783000
O 14.088279 14.644876 0.317778 -1.145843 -1.291738 1.501130 1.000000 -21.566000
H 14.263978 0.157467 0.231556 -3.893870 -4.442343 -3.998293 0.062500 10.783000
H 6.666018 9.944352 3.460255 0.738690 -2.860625 -0.444168 0.062500 10.783000
O 6.517927 9.677603 3.378113 0.589564 0.184062 -2.062807 1.000000 -21.566000
H 6.741334 9.461502 3.457970 8.650654 7.067088 3.499592 0.062500 10.783000
H 2.776506 0.424030 10.719530 -8.965207 -10.932319 0.302185 0.062500 10.783000
O 3.067699 0.369848 10.835533 -2.035982 -0.486040 -2.211143 1.000000 -21.566000
H 3.256059 0.372448 10.582515 -1.834082 -4.432622 -6.332000 0.062500 10.783000
H 10.547295 10.769005 3.239862 -8.692672 -12.737608 6.287415 0.062500 10.783000
O 10.724108 10.707179 3.505000 -1.855166 -2.214739 0.556367 1.000000 -21.566000
H 10.627988 10.429009 3.634854 4.344260 1.316365 -7.896757 0.062500 10.783000
H 6.419442 2.259377 1.912085 -4.259081 3.179593 -0.617397 0.062500 10.783000
O 6.260549 2.539973 1.865684 0.856740 2.237188 3.353759 1.000000 -21.566000
H 5.962064 2.460943 1.822019 -2.157131 5.305106 5.384391 0.062500 10.783000
H 9.425388 11.943648 13.999386 -4.586883 3.369570 -8.712899 0.062500 10.783000
O 9.650340 11.811318 13.819727 -2.045256 0.854928 1.103174 1.000000 -21.566000
H 9.661547 11.479812 13.856566 1.657367 -1.740672 0.465055 0.062500 10.783000
H 6.744478 1.852739 4.096806 2.303544 -2.739433 1.027887 0.062500 10.783000
O 6.872358 1.914839 3.805351 2.743586 -3.414941 -0.965969 1.000000 -21.566000
H 6.672155 2.084515 3.619851 7.308408 5.658552 -7.012190 0.062500 10.783000
H 14.102801 0.686400 7.759717 8.322243 15.638392 -2.529605 0.062500 10.783000
O 14.303148 0.449000 7.849207 -0.575838 1.756211 2.420900 1.000000 -21.566000
H 14.168545 0.160872 7.870828 -2.797503 3.245868 -9.316755 0.062500 10.783000
H 11.916892 0.848716 8.053925 15.125598 9.640633 -3.321352 0.062500 10.783000
O 12.021126 0.954189 8.345572 2.605667 0.957143 0.948438 1.000000 -21.566000
H 12.273575 1.159356 8.352554 5.226143 -2.755302 13.383490 0.062500 10.783000
H 12.529217 13.483055 10.054694 -2.171422 1.541337 9.212353 0.062500 10.783000
O 12.423258 13.755050 9.926786 2.794532 -0.238998 -3.177055 1.000000 -21.566000
H 12.106526 13.718715 9.946603 1.188664 -3.291000 -6.693567 0.062500 10.783000
H 5.251069 10.649283 12.940327 -13.176839 6.249395 10.960374 0.062500 10.783000
O 5.213683 10.568736 12.637404 -0.519764 -4.595054 0.743374 1.000000 -21.566000
H 4.905396 10.515326 12.577422 -11.622486 -5.445136 11.068642 0.062500 10.783000
H 0.481659 11.455267 2.662749 -4.454473 5.719886 4.033971 0.062500 10.783000
O 0.482981 11.527429 2.974253 -1.487251 6.405671 0.043934 1.000000 -21.566000
H 0.460652 11.839954 2.939846 -12.595765 -8.962131 0.626260 0.062500 10.783000
H 7.895130 8.986238 7.626424 -4.490649 3.777240 3.694767 0.062500 10.783000
O 7.755215 8.772600 7.822168 1.887260 -1.154966 -1.433484 1.000000 -21.566000
H 7.739395 8.497353 7.658802 1.485055 4.307469 13.042946 0.062500 10.783000
H 8.343264 12.012654 11.266497 -11.082936 -4.974020 -9.642506 0.062500 10.783000
O 8.483358 11.768927 11.120415 -1.354604 -3.159124 2.808676 1.000000 -21.566000
H 8.268933 11.726102 10.889909 2.824396 3.922007 3.227189 0.062500 10.783000
H 2.860871 10.807770 12.513621 16.910732 -6.667423 -4.317705 0.062500 10.783000
O 2.547303 10.896807 12.533423 3.154438 -0.518736 -2.214540 1.000000 -21.566000
H 2.425653 10.950473 12.238939 7.746180 -3.912043 -0.005971 0.062500 10.783000
H 9.848566 7.873933 13.253769 0.338309 0.051385 3.006826 0.062500 10.783000
O 10.001634 8.099155 13.433555 0.081963 -1.148504 0.574558 1.000000 -21.566000
H 10.123668 7.950790 13.695971 5.828850 5.404487 -2.371740 0.062500 10.783000
H 14.616088 12.274479 3.756565 -8.912421 6.428534 -4.139854 0.062500 10.783000
O 14.397928 12.429769 3.589862 0.638114 0.577848 -0.456367 1.000000 -21.566000
H 14.155357 12.492390 3.781189 1.765582 -6.112005 -0.977624 0.062500 10.783000
H 8.992423 10.628325 8.919337 -2.717942 -4.530983 -15.085471 0.062500 10.783000
O 8.965465 10.472923 9.200722 0.391258 -2.138576 0.799126 1.000000 -21.566000
H 8.878308 10.173673 9.118715 5.861443 -5.407150 -8.621946 0.062500 10.783000
H 8.730990 13.524572 11.113694 -3.720805 -8.829480 5.713142 0.062500 10.783000
O 9.004161 13.372307 11.032417 -1.119372 -3.386744 2.176007 1.000000 -21.566000
H 8.967893 13.062611 11.136957 -4.848351 -11.947102 -5.966371 0.062500 10.783000
H 0.726898 14.711730 0.349671 0.074467 2.328356 -4.424330 0.062500 10.783000
O 0.734822 14.421698 0.486748 2.084464 -2.087229 1.715210 1.000000 -21.566000
H 0.898546 14.447417 0.768236 1.481680 -0.766954 2.226366 0.062500 10.783000
H 12.755364 9.234086 6.635166 -9.578922 5.985396 3.804337 0.062500 10.783000
O 12.625206 9.058544 6.407903 -3.545282 2.876355 0.634363 1.000000 -21.566000
H 12.827308 9.050370 6.159303 -5.461407 19.876972 2.049187 0.062500 10.783000
H 13.212732 12.150493 1.666368 8.692682 -18.571655 -3.430832 0.062500 10.783000
O 13.162540 11.843314 1.603034 0.654233 -1.108113 -2.720346 1.000000 -21.566000
H 13.331562 11.650575 1.794385 -11.881053 4.411575 -12.490313 0.062500 10.783000
H 12.785283 2.135306 9.943208 7.107873 -4.452725 -0.557340 0.062500 10.783000
O 13.055260 1.984415 10.035295 -0.662131 -0.290013 0.594229 1.000000 -21.566000
H 13.306444 2.193139 10.041177 3.313760 5.444768 11.365240 0.062500 10.783000
H 13.228779 2.090264 8.672405 4.029301 -9.914373 -2.233205 0.062500 10.783000
O 13.292749 2.276888 8.926886 3.135621 1.658187 -1.637504 1.000000 -21.566000
H 13.506718 2.125036 9.116239 6.005061 1.453559 5.526277 0.062500 10.783000
H 0.388351 12.753553 1.804473 9.593658 -0.713197 -1.902909 0.062500 10.783000
O 0.551462 12.476258 1.849541 -0.616371 -0.103163 -0.878688 1.000000 -21.566000
H 0.718511 12.430007 1.579579 10.288993 13.326402 8.600663 0.062500 10.783000
H 6.460940 12.923453 13.184864 -1.351084 -3.311038 -10.202067 0.062500 10.783000
O 6.591757 12.674377 13.052205 1.360715 -0.198964 -3.067394 1.000000 -21.566000
H 6.337118 12.501420 12.934261 -5.079355 11.597721 1.598476 0.062500 10.783000
H 8.306982 1.766798 11.030824 -7.095250 8.358068 -1.545611 0.062500 10.783000
O 8.326014 1.583339 10.764128 -2.275398 -3.125541 -0.857478 1.000000 -21.566000
H 8.629498 1.577753 10.666892 1.265042 1.363776 12.283987 0.062500 10.783000
H 5.055643 14.501912 13.664739 7.858076 6.894780 0.558399 0.062500 10.783000
O 5.351709 14.425489 13.545415 5.303641 -3.271902 0.815060 1.000000 -21.566000
H 5.536265 14.221839 13.703319 6.519469 8.683193 2.504377 0.062500 10.783000
H 8.575980 10.984787 7.520818 1.332533 12.004900 -4.254697 0.062500 10.783000
O 8.877282 11.068753 7.455820 -2.099910 0.170996 -3.047675 1.000000 -21.566000
H 8.970833 10.917554 7.188482 0.508230 -1.005252 0.927366 0.062500 10.783000
H 11.698899 9.070460 5.419459 1.131363 -0.856551 -5.851290 0.062500 10.783000
O 11.694626 8.765545 5.529337 1.174701 -0.182467 -0.006750 1.000000 -21.566000
H 11.983391 8.646722 5.498534 1.547452 1.905499 -4.904344 0.062500 10.783000
H 6.080222 0.608093 6.009148 5.150669 4.928262 5.197095 0.062500 10.783000
O 5.856191 0.563742 6.234956 0.518806 1.095991 -3.027336 1.000000 -21.566000
H 5.744331 0.268849 6.157545 -10.211213 -14.919620 15.459872 0.062500 10.783000
H 11.281145 4.674086 0.136569 -2.230605 13.805894 -0.613530 0.062500 10.783000
O 11.428329 4.798078 14.615256 -1.279783 -0.819566 -2.434857 1.000000 -21.566000
H 11.682682 4.979811 14.714443 2.033243 -9.492728 9.814859 0.062500 10.783000
H 9.112543 1.989600 9.103804 1.385114 4.320619 3.438932 0.062500 10.783000
O 9.047356 2.232167 9.313758 3.917503 0.312436 -0.921590 1.000000 -21.566000
H 9.290380 2.349371 9.478167 -7.457004 -1.049848 10.012264 0.062500 10.783000
H 11.378962 12.285376 3.407941 -6.011095 7.760302 -7.036756 0.062500 10.783000
O 11.345184 12.591324 3.332289 1.334419 3.235305 1.500512 1.000000 -21.566000
H 11.641294 12.673731 3.217649 6.229457 14.889650 -8.755820 0.062500 10.783000
H 6.614330 13.887417 10.693396 4.586115 -11.182906 -4.903253 0.062500 10.783000
O 6.366623 14.095687 10.660987 4.505036 2.901799 2.763421 1.000000 -21.566000
H 6.105523 13.978293 10.831767 4.712790 -1.589908 -0.810505 0.062500 10.783000
H 9.224371 13.556103 12.157260 -4.775242 7.085313 -0.910851 0.062500 10.783000
O 9.150608 13.834305 12.311113 -1.594276 -1.560538 0.164307 1.000000 -21.566000
H 9.148258 13.726128 12.618910 11.245248 -24.141932 -2.361219 0.062500 10.783000
H 0.617276 3.271912 9.797668 2.314270 0.378021 -1.299830 0.062500 10.783000
O 0.710445 3.576184 9.855899 1.072027 1.810214 2.852087 1.000000 -21.566000
H 0.541267 3.697471 10.107835 -1.441355 -3.005844 -8.581528 0.062500 10.783000
H 13.287555 14.458204 8.858743 -0.443488 -8.086803 21.363998 0.062500 10.783000
O 13.326772 14.175102 8.719250 0.579897 2.223817 -0.460483 1.000000 -21.566000
H 13.040884 14.033348 8.797608 2.723164 -3.452770 -16.987394 0.062500 10.783000
H 0.996913 0.943056 10.078971 -4.164227 9.022677 2.038511 0.062500 10.783000
O 1.118626 0.951353 9.785774 -0.892856 2.528028 -1.293432 1.000000 -21.566000
H 0.943785 0.781770 9.578184 12.109414 -5.561804 5.794490 0.062500 10.783000
H 2.076631 2.479178 0.633831 1.677040 -0.437874 4.321743 0.062500 10.783000
O 2.182955 2.715310 0.456361 -2.417414 -1.955328 0.077290 1.000000 -21.566000
H 2.510532 2.673937 0.491170 -2.168113 1.201763 -10.132837 0.062500 10.783000
H 1.268618 12.990364 0.921176 4.747307 -6.679996 3.428956 0.062500 10.783000
O 0.998455 12.837432 1.021196 -0.725162 -2.876561 0.710144 1.000000 -21.566000
H 0.784334 13.065111 1.065931 -1.722717 -6.971255 13.227646 0.062500 10.783000
H 2.791983 12.817918 11.234483 9.999410 7.330101 -16.133090 0.062500 10.783000
O 2.482551 12.871990 11.131909 0.229216 -3.666488 -1.845990 1.000000 -21.566000
H 2.358004 13.176663 11.188913 13.789596 7.203658 4.100681 0.062500 10.783000
H 3.237917 12.924019 0.470458 1.777951 2.996004 -6.638522 0.062500 10.783000
O 2.999087 13.109761 0.363910 1.303585 -1.069758 1.393713 1.000000 -21.566000
H 3.058851 13.188656 0.057500 2.372742 0.552928 7.069784 0.062500 10.783000
H 4.096848 14.629671 9.377811 -5.969226 -19.172341 0.644238 0.062500 10.783000
O 3.884006 14.451535 9.222221 -1.565081 -4.020179 -2.350149 1.000000 -21.566000
H 4.029422 14.331238 8.957542 2.826402 -6.652362 -3.175590 0.062500 10.783000
H 7.364114 13.314182 3.160242 -7.119407 -3.093067 -4.303919 0.062500 10.783000
O 7.420725 13.004780 3.119222 -2.801187 4.928367 -0.336617 1.000000 -21.566000
H 7.539790 12.942931 2.822873 -8.145584 -0.141522 6.399885 0.062500 10.783000
H 11.825821 12.753299 13.558089 -11.349637 2.767507 -3.231957 0.062500 10.783000
O 12.091726 12.768785 13.726827 4.416744 -0.058584 -1.954068 1.000000 -21.566000
H 12.285560 12.988641 13.578919 2.811749 3.201787 3.258367 0.062500 10.783000
H 8.153480 1.420665 12.034009 0.909583 -6.683743 5.379396 0.062500 10.783000
O 7.938986 1.456098 11.802256 3.755295 -3.796607 -0.109465 1.000000 -21.566000
H 7.910361 1.153144 11.719685 0.178162 -7.142916 -1.318580 0.062500 10.783000
H 5.935176 2.694944 11.390444 -1.686554 -4.164314 -6.089563 0.062500 10.783000
O 5.748417 2.668704 11.661923 -0.940866 0.772733 -1.923202 1.000000 -21.566000
H 5.689218 2.352834 11.683958 10.933974 -5.156624 13.660605 0.062500 10.783000
H 6.177925 14.473310 7.808832 2.456949 10.726445 9.779852 0.062500 10.783000
O 6.168037 0.030081 7.683297 -2.397896 -3.149918 0.017911 1.000000 -21.566000
H 6.446475 0.183020 7.660451 -1.137085 -10.610259 -20.569333 0.062500 10.783000
H 8.833455 13.907591 2.097245 12.663492 -10.870783 7.591411 0.062500 10.783000
O 9.078288 13.746448 2.227541 0.165943 -1.609799 2.386077 1.000000 -21.566000
H 9.349717 13.907011 2.140083 9.591642 -2.742448 14.977248 0.062500 10.783000
H 14.583673 1.200063 11.575857 -2.670953 1.003824 9.552015 0.062500 10.783000
O 14.384995 0.986137 11.435945 -2.148243 0.779696 2.653320 1.000000 -21.566000
H 14.135248 0.980747 11.661291 12.012120 3.654036 2.617645 0.062500 10.783000
H 2.880387 13.672714 11.832530 -5.154740 5.219374 5.970219 0.062500 10.783000
O 3.175921 13.754253 11.720131 -2.405826 1.827734 -1.038653 1.000000 -21.566000
H 3.164663 13.893001 11.426819 -4.176588 -1.095714 16.161754 0.062500 10.783000
H 11.539373 1.649246 10.691704 3.950305 6.511648 4.537314 0.062500 10.783000
O 11.438743 1.944454 10.698360 -3.026807 1.322839 1.081447 1.000000 -21.566000
H 11.262852 1.979886 10.952988 -1.571866 7.161362 -15.685024 0.062500 10.783000
H 0.688691 13.315707 8.616659 -6.387741 -4.933259 -7.155698 0.062500 10.783000
O 0.678094 13.336037 8.298513 0.130287 -2.198934 -0.557855 1.000000 -21.566000
H 0.983695 13.385079 8.250084 0.425592 -0.931555 11.213497 0.062500 10.783000
H 5.734042 1.076435 1.173847 -13.208386 9.076553 1.226702 0.062500 10.783000
O 5.626518 1.046256 1.483761 -3.728473 0.916575 3.261969 1.000000 -21.566000
H 5.350372 0.876016 1.440786 2.273317 -7.932683 2.143307 0.062500 10.783000
H 0.402521 2.580334 14.305868 6.849368 5.370140 12.175556 0.062500 10.783000
O 0.163744 2.397341 14.175048 0.353332 -0.949607 0.374110 1.000000 -21.566000
H 0.109651 2.129342 14.339807 -3.807465 0.871457 -9.357907 0.062500 10.783000
H 11.502133 13.390297 14.646019 3.437248 2.849174 -11.469075 0.062500 10.783000
O 11.596458 13.579035 0.151003 -0.746888 2.139064 1.228396 1.000000 -21.566000
H 11.671240 13.385726 0.406217 3.469690 -11.441254 2.618869 0.062500 10.783000
H 0.239401 10.020261 11.298466 -4.160602 1.435980 9.109172 0.062500 10.783000
O 0.535866 9.965554 11.408309 2.366352 -0.436667 2.829982 1.000000 -21.566000
H 0.602302 9.653081 11.409306 -22.873498 1.815668 3.597374 0.062500 10.783000
H 4.178396 10.552189 12.384735 -4.732676 19.314137 -0.767139 0.062500 10.783000
O 4.387284 10.362503 12.516475 0.285727 -1.695789 -1.520968 1.000000 -21.566000
H 4.392823 10.073076 12.382596 9.962375 -9.207182 11.761890 0.062500 10.783000
H 8.368436 4.826249 12.824113 -4.217848 -8.123799 -0.002511 0.062500 10.783000
O 8.066917 4.775245 12.897319 -0.098066 -0.078689 2.401408 1.000000 -21.566000
H 7.909375 5.003429 12.729594 1.164773 -9.372042 -11.159521 0.062500 10.783000
H 2.413899 12.776663 13.164772 -13.797411 -1.169905 1.972128 0.062500 10.783000
O 2.661160 12.859241 13.352449 -2.398732 0.052570 3.020089 1.000000 -21.566000
H 2.889895 13.026486 13.185446 3.331680 0.451745 -11.765820 0.062500 10.783000
H 5.937833 0.545484 9.649464 4.101208 -11.990428 -9.728186 0.062500 10.783000
O 5.621753 0.536027 9.694450 -4.754155 3.537250 0.784567 1.000000 -21.566000
H 5.617569 0.332744 9.939835 19.070484 13.020806 8.156020 0.062500 10.783000
H 7.353395 12.523923 8.223303 -0.932265 4.400751 5.103917 0.062500 10.783000
O 7.066381 12.645043 8.201042 1.981545 0.162228 -1.478394 1.000000 -21.566000
H 7.089672 12.827574 7.932639 -6.350882 -2.041793 3.268432 0.062500 10.783000
H 8.742238 14.727374 13.479767 7.623053 -2.012865 -0.287485 0.062500 10.783000
O 8.683759 14.478617 13.672766 1.574147 1.101304 1.567226 1.000000 -21.566000
H 8.704987 14.211010 13.493042 8.480520 -1.083684 -8.590861 0.062500 10.783000
H 7.171481 13.037187 9.776023 6.915176 5.832271 0.147139 0.062500 10.783000
O 6.951956 13.207620 9.938021 -1.935706 -1.224197 0.609593 1.000000 -21.566000
H 6.835481 13.434855 9.739093 4.734372 5.746368 2.477040 0.062500 10.783000
H 12.180912 0.604707 11.018017 -0.500186 3.819457 -8.869694 0.062500 10.783000
O 12.255052 0.560854 10.706689 -1.299938 0.667272 -1.758769 1.000000 -21.566000
H 12.364249 0.266680 10.643878 8.098959 -5.043652 12.556770 0.062500 10.783000
H 9.685578 5.280756 11.941802 -4.801782 -10.587427 11.759746 0.062500 10.783000
O 9.582483 5.402560 12.224952 2.195088 1.136079 0.104706 1.000000 -21.566000
H 9.843049 5.532432 12.377125 7.412739 -5.768044 11.131077 0.062500 10.783000
H 4.646927 3.660495 14.219575 11.077796 4.516636 9.769480 0.062500 10.783000
O 4.364083 3.485038 14.256977 1.750453 -1.132903 -1.982987 1.000000 -21.566000
H 4.120455 3.592679 14.080302 5.605636 2.834476 -2.512711 0.062500 10.783000
H 2.493665 3.170567 9.556723 2.022312 6.300069 -10.900693 0.062500 10.783000
O 2.414168 3.426298 9.752916 1.716692 -2.376005 0.151939 1.000000 -21.566000
H 2.111107 3.534775 9.696596 -5.404445 10.981742 15.156279 0.062500 10.783000
H 2.391715 0.598572 13.128299 0.637417 -3.246993 -4.516715 0.062500 10.783000
O 2.660166 0.505928 13.295920 2.072657 -0.709918 -0.507973 1.000000 -21.566000
H 2.821303 0.262720 13.152524 -9.335245 -16.792347 2.247785 0.062500 10.783000
H 1.970782 11.164799 13.335654 -1.638115 8.166172 -4.740049 0.062500 10.783000
O 1.980872 10.833014 13.327994 2.673168 1.195061 -2.059928 1.000000 -21.566000
H 2.144415 10.802319 13.054100 11.765490 -4.313093 -10.625130 0.062500 10.783000
H 5.848548 1.506792 13.228837 -1.260964 -0.909583 2.814051 0.062500 10.783000
O 5.684636 1.636192 13.472580 -1.974138 -0.310127 -1.606120 1.000000 -21.566000
H 5.409659 1.768575 13.349118 -4.347718 10.527173 1.247883 0.062500 10.783000
H 1.946693 2.617512 14.615773 -0.192866 5.276670 -1.406825 0.062500 10.783000
O 1.921345 2.390701 14.373060 -0.706695 1.793730 -1.864266 1.000000 -21.566000
H 2.084903 2.145905 14.461507 0.700917 0.259341 7.419775 0.062500 10.783000
H 2.853069 12.439631 8.583186 -6.103587 -9.892986 -2.597533 0.062500 10.783000
O 2.961226 12.143606 8.661675 1.256284 -2.426979 -0.605134 1.000000 -21.566000
H 3.052800 12.053774 8.370741 -8.396489 9.062880 -4.475373 0.062500 10.783000
H 2.140311 2.508546 12.677821 -7.060155 3.158317 5.938921 0.062500 10.783000
O 1.888672 2.704001 12.687409 -1.139978 1.218648 -0.541186 1.000000 -21.566000
H 1.820395 2.691145 13.016815 -3.115754 -4.645155 2.365971 0.062500 10.783000
H 3.470955 11.246999 14.329351 -1.780345 0.521010 -11.560293 0.062500 10.783000
O 3.773329 11.223279 14.412848 -5.907033 -2.438707 0.917642 1.000000 -21.566000
H 3.937231 10.984625 14.269147 -2.295623 -0.175114 10.399169 0.062500 10.783000
H 7.546858 3.876153 8.259910 -8.737198 8.800756 -13.293157 0.062500 10.783000
O 7.357790 3.633963 8.354783 2.397394 3.158181 0.927480 1.000000 -21.566000
H 7.091647 3.801373 8.444309 -10.021648 -12.862541 -0.776084 0.062500 10.783000
H 6.889903 1.368213 10.733447 -2.890416 -8.202772 1.381933 0.062500 10.783000
O 6.633499 1.222719 10.606726 -0.664460 -2.781220 -1.185097 1.000000 -21.566000
H 6.520539 1.024034 10.837128 1.680196 5.529827 7.304097 0.062500 10.783000
H 5.798255 3.429216 9.441226 6.273026 -0.411346 -5.919371 0.062500 10.783000
O 5.679461 3.413568 9.147000 2.070110 -1.108702 5.766249 1.000000 -21.566000
H 5.357244 3.401458 9.165735 -0.550501 -13.009081 0.934849 0.062500 10.783000
H 11.340000 1.213487 13.799515 -4.166101 -7.113748 -0.512343 0.062500 10.783000
O 11.098813 1.031515 13.872814 1.674754 -2.873665 0.476829 1.000000 -21.566000
H 11.040100 1.066359 14.191369 16.175584 15.747000 0.458617 0.062500 10.783000
H 7.998341 0.195019 8.575709 -7.740627 1.716190 -2.830573 0.062500 10.783000
O 8.208843 0.394863 8.447481 0.877963 -0.429408 -2.003298 1.000000 -21.566000
H 8.163019 0.659552 8.626842 -20.460541 -9.013654 2.796393 0.062500 10.783000
H 0.362900 5.062895 1.232533 -3.851001 4.503444 13.965252 0.062500 10.783000
O 0.264868 4.963669 0.944533 -0.960612 0.072660 0.447638 1.000000 -21.566000
H 0.325136 4.648043 0.973173 18.390383 -6.647795 -3.443536 0.062500 10.783000
H 3.699341 7.774984 1.003303 -17.365127 8.922294 -16.585105 0.062500 10.783000
O 3.422570 7.928988 1.063726 1.967781 -0.408417 -1.040747 1.000000 -21.566000
H 3.263450 7.729860 1.258001 -0.095385 6.499530 -0.493185 0.062500 10.783000
H 1.201489 2.033340 10.549572 5.997385 -27.229506 -3.552492 0.062500 10.783000
O 1.117473 2.259663 10.310530 -1.638699 -1.781613 2.494691 1.000000 -21.566000
H 1.392240 2.405895 10.240719 -2.449202 -9.425677 4.230832 0.062500 10.783000
H 0.542840 0.492345 12.534665 2.813943 11.434891 3.305587 0.062500 10.783000
O 0.337731 0.547849 12.306979 0.900555 -1.236811 2.626660 1.000000 -21.566000
H 0.134178 0.773932 12.406237 8.802223 -0.259999 -0.542692 0.062500 10.783000
H 3.996991 14.135186 10.482371 6.464148 -9.420573 -9.969780 0.062500 10.783000
O 3.738463 14.332907 10.458885 2.022618 0.655599 6.215021 1.000000 -21.566000
H 3.840638 14.640387 10.455500 -8.726906 1.981440 -15.665263 0.062500 10.783000
H 11.290560 6.394581 9.096959 3.247747 6.851511 3.276764 0.062500 10.783000
O 11.366547 6.150555 9.285369 -3.295410 2.939219 -2.026856 1.000000 -21.566000
H 11.583521 5.959774 9.134707 -5.818894 -2.134765 -5.422795 0.062500 10.783000
H 12.983996 5.039297 11.802406 7.558586 -4.181648 7.719826 0.062500 10.783000
O 13.077205 4.865863 11.551984 -1.895816 -2.469794 -2.126004 1.000000 -21.566000
H 12.801715 4.687544 11.506167 2.026571 -4.231235 -5.718529 0.062500 10.783000
H 14.023326 3.496965 3.397068 8.739441 5.951763 7.099016 0.062500 10.783000
O 13.803017 3.628384 3.198474 1.825083 -4.473832 1.476103 1.000000 -21.566000
H 13.830000 3.944973 3.134705 -7.721297 -19.442657 -2.026209 0.062500 10.783000
H 3.428305 5.389444 13.303974 -12.411647 -2.905426 -0.264511 0.062500 10.783000
O 3.346745 5.675468 13.410075 1.981431 -1.482030 0.826705 1.000000 -21.566000
H 3.062367 5.740036 13.291119 -7.898583 17.538108 15.196052 0.062500 10.783000
H 1.367337 4.157546 0.740126 2.221069 -10.045770 4.569830 0.062500 10.783000
O 1.612881 4.227346 0.537562 -2.084165 0.362469 1.430654 1.000000 -21.566000
H 1.827218 3.984249 0.569989 -15.889105 -0.264854 16.964472 0.062500 10.783000
H 6.965750 1.687531 12.682799 -9.890649 -0.513834 -0.851267 0.062500 10.783000
O 7.199980 1.466833 12.776277 1.914460 0.431746 -1.108108 1.000000 -21.566000
H 7.379859 1.584618 13.015864 -2.571962 -14.198130 16.952864 0.062500 10.783000
H 6.282184 1.980687 9.607549 -10.321922 -2.005611 -1.654843 0.062500 10.783000
O 6.538487 1.865452 9.462828 -0.878233 0.422989 -0.309988 1.000000 -21.566000
H 6.798183 2.055004 9.481570 3.918445 -10.541816 13.501790 0.062500 10.783000
H 4.485045 14.357819 12.294049 -7.328667 -2.582567 -5.430406 0.062500 10.783000
O 4.311764 14.463535 12.040560 0.683393 -0.234298 1.166976 1.000000 -21.566000
H 4.505138 14.371120 11.797499 -6.116692 4.954734 -4.986739 0.062500 10.783000
H 3.680476 0.641921 11.539114 -4.280287 0.090961 -4.133068 0.062500 10.783000
O 3.483573 0.853345 11.406607 0.162763 0.900994 2.186705 1.000000 -21.566000
H 3.338552 0.679750 11.184448 7.049348 8.610057 -9.927583 0.062500 10.783000
H 7.412477 11.517278 12.198392 2.254553 -0.535085 -14.959183 0.062500 10.783000
O 7.131507 11.617248 12.319336 1.427775 -4.195333 -3.700046 1.000000 -21.566000
H 6.960016 11.411668 12.501056 -0.798540 -2.756718 6.301895 0.062500 10.783000
H 9.900886 7.007732 14.215418 -3.540575 -5.797143 -0.984240 0.062500 10.783000
O 9.683261 6.977619 14.450245 -1.337608 -0.734291 2.448064 1.000000 -21.566000
H 9.703690 6.672860 14.536786 -6.120305 0.408759 0.335995 0.062500 10.783000
H 0.930243 4.534472 8.561196 8.628787 5.120866 -3.416222 0.062500 10.783000
O 0.648925 4.399225 8.537087 2.509021 0.361201 2.463493 1.000000 -21.566000
H 0.668168 4.147041 8.734447 -4.641785 -0.439819 -6.113585 0.062500 10.783000
H 2.046611 7.624136 9.397938 0.762561 -11.733513 5.608272 0.062500 10.783000
O 1.739596 7.635302 9.273730 1.733740 0.241237 -2.290373 1.000000 -21.566000
H 1.580949 7.398457 9.447851 3.218359 -7.797256 -8.028540 0.062500 10.783000
H 12.639030 3.858298 9.871455 -7.051276 -6.636900 -9.241409 0.062500 10.783000
O 12.826467 3.875057 10.133767 -0.186606 -0.951844 -3.709011 1.000000 -21.566000
H 12.943173 3.614686 10.284584 -2.342455 9.550354 13.308912 0.062500 10.783000
H 0.242007 3.834652 11.811901 -7.738405 -11.836797 0.655257 0.062500 10.783000
O 14.699270 3.734947 11.720497 0.556690 -1.746764 0.069542 1.000000 -21.566000
H 14.678270 3.562446 11.459684 -3.724077 4.308168 5.780534 0.062500 10.783000
H 5.747587 2.698691 12.721576 1.715820 2.169302 -10.692141 0.062500 10.783000
O 6.064641 2.686120 12.680082 1.437791 2.419899 -2.063721 1.000000 -21.566000
H 6.136852 2.883514 12.437882 10.522213 6.437736 0.473369 0.062500 10.783000
H 5.122510 12.432244 12.296335 -11.582862 -6.687785 11.512705 0.062500 10.783000
O 4.860588 12.596442 12.200025 0.597621 0.996798 -1.834837 1.000000 -21.566000
H 4.932740 12.729099 11.909232 -12.663020 8.096089 0.341350 0.062500 10.783000
H 6.556666 3.199020 3.046043 10.184442 2.014121 -1.854374 0.062500 10.783000
O 6.673437 3.142573 3.339444 -0.428032 -3.425047 0.749049 1.000000 -21.566000
H 6.787400 3.430320 3.414094 9.090860 -11.463657 4.521899 0.062500 10.783000
H 13.620705 5.467728 11.203501 -12.253435 -1.715060 1.624422 0.062500 10.783000
O 13.896982 5.606765 11.292646 -4.173609 -0.267234 -2.602779 1.000000 -21.566000
H 13.893057 5.638089 11.610457 5.364503 -6.148646 1.928475 0.062500 10.783000
H 7.730933 2.975878 14.361267 -2.057675 -2.121499 -5.766195 0.062500 10.783000
O 7.682388 2.663131 14.351997 -0.092339 -0.866181 -0.457442 1.000000 -21.566000
H 7.890665 2.522794 14.151358 -16.331967 -1.485345 0.975778 0.062500 10.783000
H 6.597451 3.197463 13.762210 -19.093162 -7.956256 -6.542893 0.062500 10.783000
O 6.651846 3.251191 14.071396 -1.769469 0.191845 -1.321840 1.000000 -21.566000
H 6.445955 3.073294 14.248595 -2.997730 6.669514 7.292727 0.062500 10.783000
H 7.600452 2.400688 10.739180 2.524535 2.327421 -7.411063 0.062500 10.783000
O 7.415395 2.417567 10.487367 -1.893920 -2.533396 -1.662195 1.000000 -21.566000
H 7.470117 2.133469 10.364693 -0.836643 4.041822 2.204785 0.062500 10.783000
H 10.265998 6.039111 7.139992 -6.986990 -6.620691 -7.194828 0.062500 10.783000
O 10.575992 6.042812 7.239638 0.938235 -0.945534 0.227749 1.000000 -21.566000
H 10.700895 5.803474 7.074572 -4.510338 3.873758 -8.618952 0.062500 10.783000
H 11.539604 6.463325 12.005748 0.519600 2.838472 1.045838 0.062500 10.783000
O 11.733959 6.368610 12.243828 4.211460 1.112564 0.076765 1.000000 -21.566000
H 11.627168 6.076321 12.358349 -15.044189 -0.274747 -13.183434 0.062500 10.783000
H 14.572946 7.319044 14.639836 2.525987 3.324290 -3.750271 0.062500 10.783000
O 0.049002 7.130881 0.039906 -0.108990 3.877818 0.243375 1.000000 -21.566000
H 0.134777 6.883248 14.565853 -6.153523 7.161963 -10.114815 0.062500 10.783000
H 11.180175 2.159955 14.094580 -14.864394 -4.278301 3.398377 0.062500 10.783000
O 10.899359 2.276825 14.149330 -1.239103 1.151493 -0.592974 1.000000 -21.566000
H 10.852730 2.590560 14.162485 -12.581892 -1.917433 -4.523068 0.062500 10.783000
H 0.620059 5.629117 10.220650 -0.989538 19.211152 10.561670 0.062500 10.783000
O 0.857998 5.530126 10.034453 -1.268211 0.943607 1.068443 1.000000 -21.566000
H 0.946380 5.751876 9.827616 1.582119 -0.277341 0.716314 0.062500 10.783000
H 0.285078 4.375519 12.600998 0.745302 -4.067655 -13.762008 0.062500 10.783000
O 0.013887 4.387043 12.782289 0.326334 -0.039571 1.442383 1.000000 -21.566000
H 14.725326 4.663047 12.943270 -4.161788 -6.436201 -4.087006 0.062500 10.783000
H 6.429338 3.940460 8.527429 -6.207724 3.820408 -11.372199 0.062500 10.783000
O 6.689422 4.127219 8.540478 0.468651 1.878606 2.636721 1.000000 -21.566000
H 6.723508 4.361388 8.336588 5.004668 -1.807676 16.602034 0.062500 10.783000
H 6.751907 2.421948 14.479137 -2.393408 -4.109904 -0.097852 0.062500 10.783000
O 6.792906 2.241426 14.222136 -0.711696 -1.646217 -0.145342 1.000000 -21.566000
H 6.770589 2.383429 13.939528 -5.279927 -2.911975 7.719166 0.062500 10.783000
H 0.579381 7.209040 0.421954 -1.006757 -2.817860 10.406974 0.062500 10.783000
O 0.703595 7.412011 0.641863 5.330299 3.772563 0.430603 1.000000 -21.566000
H 0.582712 7.342716 0.936170 7.087367 -0.888918 -0.441924 0.062500 10.783000
H 12.321643 5.296963 13.105613 -3.935358 20.113849 -6.714018 0.062500 10.783000
O 12.311485 5.529745 12.893155 -1.090949 0.351627 -2.074442 1.000000 -21.566000
H 12.020582 5.530882 12.771367 0.323869 8.329920 -3.137912 0.062500 10.783000
H 2.891617 3.397933 12.166561 -4.218458 3.986461 -1.664580 0.062500 10.783000
O 2.813789 3.692092 12.113045 -1.507662 -1.882909 -1.512972 1.000000 -21.566000
H 2.583987 3.787819 12.316412 5.041522 3.841316 -2.469295 0.062500 10.783000
H 7.345068 0.288249 10.573288 2.084902 12.111663 -9.550716 0.062500 10.783000
O 7.579087 0.478516 10.685460 0.615015 -0.187901 -2.362850 1.000000 -21.566000
H 7.449984 0.551052 10.963758 -6.275447 -5.133919 -12.580861 0.062500 10.783000
H 6.983818 0.799972 13.882500 -4.080146 12.536787 -7.593072 0.062500 10.783000
O 6.855590 1.007721 14.082431 -1.391764 1.404030 -0.681301 1.000000 -21.566000
H 7.069345 1.245593 14.099337 -8.760890 -11.553507 -8.336661 0.062500 10.783000
H 5.323160 2.338249 14.443360 7.953331 4.665408 -2.706460 0.062500 10.783000
O 5.180853 2.536024 14.664948 0.478495 -0.363767 -0.720432 1.000000 -21.566000
H 5.257784 2.427180 0.206543 1.299040 15.369155 2.405824 0.062500 10.783000
H 10.718031 6.015459 13.664093 7.836623 -8.010355 -12.859760 0.062500 10.783000
O 10.802584 5.766392 13.852137 0.470510 -2.039972 0.508755 1.000000 -21.566000
H 10.864370 5.514783 13.662333 -2.827095 14.089455 1.748779 0.062500 10.783000
H 4.642036 4.211083 4.474944 -6.155260 -5.329408 10.152827 0.062500 10.783000
O 4.783772 4.489658 4.404909 1.306050 -1.193425 1.317378 1.000000 -21.566000
H 4.927393 4.602604 4.671777 5.480912 -4.902817 13.791681 0.062500 10.783000
H 10.054050 1.368079 14.596305 21.228044 4.728807 14.395413 0.062500 10.783000
O 10.151959 1.584473 0.053400 0.051652 0.188155 -3.108423 1.000000 -21.566000
H 10.115932 1.480994 0.360670 -10.512708 -18.673837 -7.143426 0.062500 10.783000
H 12.398227 5.826298 9.746778 9.489914 8.266540 -1.052622 0.062500 10.783000
O 12.308877 5.652592 9.987589 -1.187354 2.407386 3.712300 1.000000 -21.566000
H 12.014666 5.755274 10.058976 -1.295554 -4.274795 7.858810 0.062500 10.783000
H 9.693426 6.992886 13.282248 -0.144805 2.502253 0.142656 0.062500 10.783000
O 9.778609 7.247293 13.098696 -0.224335 -1.690706 -0.038999 1.000000 -21.566000
H 10.039475 7.201577 12.927382 8.672445 -2.367738 -9.150942 0.062500 10.783000
H 13.294512 4.666317 5.934852 3.728813 -0.817739 -0.644699 0.062500 10.783000
O 13.561559 4.785314 5.807831 -0.379290 4.264058 -0.183587 1.000000 -21.566000
H 13.765503 4.552758 5.730360 -5.208205 6.336460 -1.165356 0.062500 10.783000
H 14.262912 13.641331 12.491139 -0.340567 0.579639 -10.960894 0.062500 10.783000
O 14.126218 13.915710 12.594898 0.119743 -1.386741 3.699515 1.000000 -21.566000
H 14.216827 14.154709 12.400314 12.497732 2.213025 -3.410974 0.062500 10.783000
H 3.964249 2.785661 11.663378 -0.017132 3.668321 0.211140 0.062500 10.783000
O 4.193312 2.625782 11.827218 2.236416 -1.637028 4.934197 1.000000 -21.566000
H 4.439334 2.548953 11.640245 -1.758680 -2.903742 7.275108 0.062500 10.783000
H 0.685319 2.178038 0.653601 3.444458 8.786012 6.391262 0.062500 10.783000
O 0.985795 2.104555 0.549472 0.134577 -1.371839 1.402011 1.000000 -21.566000
H 1.107570 1.895214 0.768655 10.150489 -1.563095 -3.449464 0.062500 10.783000
H 4.426466 1.361610 14.032719 9.589633 3.268595 5.747600 0.062500 10.783000
O 4.529764 1.323816 13.734972 -1.224271 -1.965643 1.428122 1.000000 -21.566000
H 4.279948 1.295885 13.551405 -4.781990 2.158993 -5.207370 0.062500 10.783000
H 0.625474 14.387538 13.386167 0.466416 -4.369553 7.063557 0.062500 10.783000
O 0.863555 14.420244 13.179576 0.716859 -1.916649 3.522852 1.000000 -21.566000
H 0.962636 14.725042 13.121809 -5.023392 3.474441 1.948971 0.062500 10.783000
H 6.004430 7.676467 14.541388 -3.174337 3.054064 -1.694069 0.062500 10.783000
O 6.317492 7.711983 14.527484 -2.999602 1.667443 -2.340361 1.000000 -21.566000
H 6.438279 7.609471 14.244827 -2.373708 -4.006528 2.265880 0.062500 10.783000
H 1.412900 3.627443 2.028385 10.378441 11.006476 7.349373 0.062500 10.783000
O 1.429647 3.864792 1.815966 1.532274 -0.886201 -1.440394 1.000000 -21.566000
H 1.233534 4.094658 1.942458 -1.913205 -9.477058 2.642614 0.062500 10.783000
H 6.133493 9.363282 12.648663 9.232394 8.400509 -3.418656 0.062500 10.783000
O 5.993160 9.556435 12.854922 -0.507847 -0.993264 -4.807258 1.000000 -21.566000
H 6.203599 9.767830 12.955224 7.209320 5.208145 -11.196392 0.062500 10.783000
H 1.606489 4.904290 0.535932 8.554391 1.753693 -5.582539 0.062500 10.783000
O 1.584518 5.199159 0.438472 -0.405798 -0.828556 2.561176 1.000000 -21.566000
H 1.896523 5.299591 0.465870 -6.065573 -2.343220 -2.031890 0.062500 10.783000
H 8.874818 1.689906 12.364417 -5.725217 7.480552 13.709757 0.062500 10.783000
O 8.977470 1.988173 12.347033 -1.234127 0.699566 1.505743 1.000000 -21.566000
H 9.278411 2.001250 12.446724 -2.120331 0.701468 -1.451819 0.062500 10.783000
H 7.659524 0.321549 9.779878 24.192126 -20.860713 2.456223 0.062500 10.783000
O 7.498560 0.056648 9.728345 0.640621 -0.948061 1.432078 1.000000 -21.566000
H 7.250548 0.052100 9.922164 -5.067848 1.231775 -7.115589 0.062500 10.783000
H 11.662961 12.325055 12.534028 -7.653751 -4.713062 2.702584 0.062500 10.783000
O 11.987179 12.281036 12.546186 -2.720729 3.082604 -1.254253 1.000000 -21.566000
H 12.118965 12.562206 12.628442 -7.705659 2.058861 18.125673 0.062500 10.783000
H 9.993717 4.776812 12.990359 1.837721 -0.255690 10.630254 0.062500 10.783000
O 10.020034 5.035794 13.183159 -0.615737 0.902711 1.063456 1.000000 -21.566000
H 10.146269 5.251036 12.981270 5.211182 -5.637016 5.485263 0.062500 10.783000
H 11.030323 12.550676 11.264043 -11.641312 -6.310689 5.927059 0.062500 10.783000
O 11.289198 12.742901 11.172241 0.516054 -3.090136 0.316067 1.000000 -21.566000
H 11.203006 12.817271 10.869042 5.075425 -10.991088 -6.441797 0.062500 10.783000
H 7.462852 11.788890 9.091119 -1.233942 -7.318205 -14.574064 0.062500 10.783000
O 7.679216 12.008383 9.192026 1.697401 -0.831752 2.323738 1.000000 -21.566000
H 7.947756 11.857283 9.293732 -4.405484 -7.148139 10.135666 0.062500 10.783000
H 13.874228 5.452300 1.226010 0.380707 1.117165 -0.764192 0.062500 10.783000
O 13.628469 5.635244 1.156432 -1.406472 2.212727 -1.356884 1.000000 -21.566000
H 13.632224 5.590148 0.833282 0.610821 -2.791182 7.411536 0.062500 10.783000
H 2.478577 8.956261 0.681832 -4.205294 6.762252 -19.581960 0.062500 10.783000
O 2.163923 8.977441 0.601825 -0.648738 1.848375 1.290358 1.000000 -21.566000
H 2.020173 9.140623 0.836571 -0.604221 4.309678 13.727973 0.062500 10.783000
H 12.099715 3.707549 0.211599 -3.952826 1.917764 9.674426 0.062500 10.783000
O 12.209078 3.890142 14.700873 -0.139799 -2.678464 2.460032 1.000000 -21.566000
H 12.326134 4.178691 0.077261 -4.694960 -0.673585 15.343929 0.062500 10.783000
H 3.860408 7.376204 2.664956 5.457815 -7.598000 -2.320784 0.062500 10.783000
O 3.701459 7.150969 2.825885 -4.454918 -0.784651 -0.284673 1.000000 -21.566000
H 3.410432 7.230268 2.919216 -9.105981 -0.265365 6.022079 0.062500 10.783000
H 2.349631 14.237449 13.335081 -1.697374 -12.611525 12.416381 0.062500 10.783000
O 2.034977 14.229614 13.377193 -0.181373 -1.722313 -1.738506 1.000000 -21.566000
H 1.968088 14.377217 13.653883 3.335369 -10.347696 -15.421664 0.062500 10.783000
H 8.715593 12.176085 14.378981 2.474939 -4.119368 -3.365122 0.062500 10.783000
O 9.017790 12.078201 14.330755 0.483349 0.101204 0.507520 1.000000 -21.566000
H 9.116065 11.851442 14.536374 -14.149706 14.715528 12.675795 0.062500 10.783000
H 3.549540 8.708075 0.281491 3.794747 10.955607 10.449301 0.062500 10.783000
O 3.621841 9.020316 0.237366 1.961870 -1.122477 2.058688 1.000000 -21.566000
H 3.769391 9.007313 14.695093 -5.534510 -2.760450 1.305721 0.062500 10.783000
H 6.805604 1.850467 1.662614 -6.880961 1.145518 16.131990 0.062500 10.783000
O 6.697878 1.798541 1.960929 -0.692746 -3.681966 0.527420 1.000000 -21.566000
H 6.909577 1.581073 2.092948 8.813542 10.238344 5.421623 0.062500 10.783000
H 6.761681 3.597431 0.521348 7.929619 11.351997 -0.354466 0.062500 10.783000
O 6.623619 3.545549 0.807289 2.320178 0.145156 -1.490793 1.000000 -21.566000
H 6.566094 3.853853 0.899456 -3.491383 11.776946 2.403544 0.062500 10.783000
H 9.388538 0.162833 13.975870 1.623434 -12.304527 -8.293524 0.062500 10.783000
O 9.220691 0.168621 14.233651 0.956271 1.360402 -2.050252 1.000000 -21.566000
H 8.946492 0.028790 14.151627 10.977390 -9.659634 -1.380765 0.062500 10.783000
H 8.262105 7.862952 0.632485 7.515788 4.517268 -4.691225 0.062500 10.783000
O 8.495651 7.730375 0.458116 -0.372753 -0.804541 -3.267716 1.000000 -21.566000
H 8.525289 7.450553 0.622002 -5.579884 -7.721396 -6.406311 0.062500 10.783000
H 11.280958 9.634781 5.470250 0.454942 9.509131 -3.653515 0.062500 10.783000
O 11.478956 9.556194 5.236593 -0.777264 -1.274052 1.075326 1.000000 -21.566000
H 11.507814 9.851759 5.138959 -9.661471 9.669409 14.062759 0.062500 10.783000
H 10.278138 0.158875 0.374742 0.039645 12.979246 9.608570 0.062500 10.783000
O 10.292023 0.020103 0.652547 3.034789 -1.189869 -0.155428 1.000000 -21.566000
H 10.483413 0.219288 0.812876 3.513125 -3.285629 7.352856 0.062500 10.783000
H 8.845871 4.288710 11.504657 -6.257103 -5.789651 0.874411 0.062500 10.783000
O 8.834446 4.496283 11.745595 -1.682953 -3.481287 1.385547 1.000000 -21.566000
H 8.738196 4.803219 11.673131 -6.818087 -0.648758 4.449264 0.062500 10.783000
H 12.570212 5.821835 12.124869 7.548358 7.071569 14.646096 0.062500 10.783000
O 12.845267 5.898203 11.966892 0.268652 0.782506 0.566411 1.000000 -21.566000
H 13.084149 5.715439 12.109884 -1.072341 -1.376574 11.636231 0.062500 10.783000
H 1.498888 10.622718 13.493121 -2.134715 -3.297265 -3.498005 0.062500 10.783000
O 1.264794 10.457091 13.650788 -1.785314 1.653730 -1.909566 1.000000 -21.566000
H 1.378327 10.164891 13.715462 5.665082 11.162985 -9.442316 0.062500 10.783000
H 3.707288 6.661276 1.354135 -16.713516 -20.746436 8.931563 0.062500 10.783000
O 3.382848 6.676350 1.313318 0.493138 -2.114286 2.229042 1.000000 -21.566000
H 3.246194 6.776751 1.590331 -12.152366 2.596092 -1.781091 0.062500 10.783000
H 0.002699 5.785487 6.733946 -8.935553 -6.524942 -2.255870 0.062500 10.783000
O 14.549170 5.542128 6.686496 0.213799 -1.388628 2.027680 1.000000 -21.566000
H 14.633603 5.313031 6.886246 2.315183 -4.070848 3.088485 0.062500 10.783000
H 8.084313 9.584572 0.413677 -8.541772 8.457274 -1.573653 0.062500 10.783000
O 8.084318 9.305343 0.250415 -2.675563 0.700673 1.520157 1.000000 -21.566000
H 8.281088 9.065000 0.380961 -4.529847 -0.867283 -5.796493 0.062500 10.783000
H 4.113226 5.072266 4.026829 -8.714514 -23.454214 -11.654499 0.062500 10.783000
O 4.389927 5.046860 3.870835 2.523821 4.816949 2.483309 1.000000 -21.566000
H 4.562376 4.849102 4.046484 2.023881 14.077490 -1.239035 0.062500 10.783000
H 4.037828 5.660948 3.181150 3.838518 6.110628 0.110467 0.062500 10.783000
O 4.355046 5.638116 3.246205 3.285700 -2.610174 -2.692476 1.000000 -21.566000
H 4.411117 5.422723 3.478788 3.696010 4.422158 10.698773 0.062500 10.783000
H 3.925921 6.971405 11.836020 -6.291160 8.471265 0.350552 0.062500 10.783000
O 4.235657 6.999392 11.748852 0.442888 0.240875 -1.955977 1.000000 -21.566000
H 4.368636 6.692028 11.811701 11.815641 1.540681 -9.137299 0.062500 10.783000
H 6.747206 4.515933 1.255226 3.128499 5.398292 8.100335 0.062500 10.783000
O 6.710686 4.606848 1.569386 1.090186 1.389044 0.324066 1.000000 -21.566000
H 7.012416 4.550271 1.646655 -12.832182 -3.055806 9.408066 0.062500 10.783000
H 5.104008 14.240113 11.099388 -9.242124 -12.106272 2.482803 0.062500 10.783000
O 5.000536 14.346065 11.412762 0.822687 -1.949441 -1.262779 1.000000 -21.566000
H 5.251210 14.441811 11.587486 -8.754137 15.978516 1.183694 0.062500 10.783000
H 8.014686 9.354193 13.303128 -1.167092 -26.729927 9.966269 0.062500 10.783000
O 7.766485 9.531991 13.410205 3.717802 1.091397 0.955109 1.000000 -21.566000
H 7.780328 9.578682 13.736078 16.540639 -19.266205 -4.650706 0.062500 10.783000
H 13.481515 7.035433 13.918746 -7.604031 -0.606587 2.251584 0.062500 10.783000
O 13.759030 7.117781 14.029157 0.183845 0.311479 -1.560019 1.000000 -21.566000
H 13.820777 7.431909 14.007107 16.791933 -9.904349 -3.473045 0.062500 10.783000
H 9.167438 7.564624 10.862122 1.876799 -3.174254 -1.881356 0.062500 10.783000
O 9.191536 7.869840 10.820295 0.971268 0.357840 4.353171 1.000000 -21.566000
H 9.151298 8.034372 11.081511 0.032781 -0.865670 -1.996263 0.062500 10.783000
H 9.149973 6.836352 12.180211 16.746149 -2.118716 -13.417678 0.062500 10.783000
O 9.006033 7.051867 12.007118 -1.127089 0.763229 -1.137029 1.000000 -21.566000
H 9.187123 7.318020 12.053100 2.384286 -4.590781 -3.274616 0.062500 10.783000
H 12.177165 10.091184 12.602196 11.484004 -2.379581 -9.181036 0.062500 10.783000
O 12.409082 10.294331 12.651875 -0.358279 -1.067034 2.919769 1.000000 -21.566000
H 12.398057 10.544244 12.437817 0.949936 5.010834 -0.017234 0.062500 10.783000
H 13.465396 8.929209 12.499265 -4.770685 -4.037497 2.637334 0.062500 10.783000
O 13.197308 8.834255 12.368907 2.191607 3.539976 0.698933 1.000000 -21.566000
H 13.142243 8.531353 12.477058 -4.291199 -8.494032 4.323124 0.062500 10.783000
H 13.856600 10.912369 13.645194 -8.606586 5.834281 -9.356730 0.062500 10.783000
O 13.969628 10.615779 13.581635 1.521251 0.816436 -3.572101 1.000000 -21.566000
H 14.230203 10.697129 13.402709 -4.859010 15.867702 -4.970038 0.062500 10.783000
H 0.758669 5.306540 1.640381 9.631543 -6.627040 -5.567611 0.062500 10.783000
O 0.475347 5.230087 1.761891 2.094077 -1.468263 -2.812221 1.000000 -21.566000
H 0.282123 5.458374 1.881091 12.433830 8.007495 2.896118 0.062500 10.783000
H 0.865681 3.698273 13.226730 -7.231909 8.593761 3.430922 0.062500 10.783000
O 0.548923 3.730985 13.208433 -2.056261 0.364911 -1.606900 1.000000 -21.566000
H 0.482988 3.624751 12.913992 -6.289606 0.823743 0.970140 0.062500 10.783000
H 1.020383 12.591172 10.633679 -1.103712 1.015011 0.094089 0.062500 10.783000
O 1.287762 12.576769 10.453594 -2.802344 -3.347107 -1.074395 1.000000 -21.566000
H 1.438947 12.856330 10.451421 -10.362907 8.991603 -9.425187 0.062500 10.783000
H 14.735095 12.941555 12.668172 10.767821 -10.954442 -3.909838 0.062500 10.783000
O 14.572190 13.153258 12.471821 2.408741 5.181888 0.011530 1.000000 -21.566000
H 14.293374 13.010730 12.376597 4.753094 0.491077 -6.506388 0.062500 10.783000
H 9.371194 5.704209 0.328791 -2.412467 -18.655783 -5.304583 0.062500 10.783000
O 9.284729 5.838941 0.054075 -0.227988 1.219768 -0.293615 1.000000 -21.566000
H 9.109315 5.604658 14.643346 -1.970306 -16.923490 -10.237383 0.062500 10.783000
H 2.113321 7.108101 14.378225 16.175913 0.305021 -1.635002 0.062500 10.783000
O 2.019368 6.856486 14.553237 -0.405876 -1.221833 -3.037526 1.000000 -21.566000
H 1.801666 6.996982 14.734318 12.349068 -12.061098 2.657904 0.062500 10.783000
H 9.502368 2.927244 0.455605 -3.366521 -5.110827 -4.161649 0.062500 10.783000
O 9.419527 2.676238 0.640400 1.464430 -0.345726 -0.514745 1.000000 -21.566000
H 9.119233 2.613376 0.553245 -4.610792 -7.012332 11.612914 0.062500 10.783000
H 11.008488 12.131430 6.401011 -11.090304 9.695495 -4.604930 0.062500 10.783000
O 11.069736 12.370500 6.599533 -0.422063 -2.029012 -0.007213 1.000000 -21.566000
H 10.895408 12.602961 6.480093 -3.522037 -4.656245 -3.872535 0.062500 10.783000
H 10.192396 7.945594 4.011607 5.965802 2.195439 12.742562 0.062500 10.783000
O 10.129526 8.064165 4.300016 -5.666371 -1.348202 1.345343 1.000000 -21.566000
H 10.351020 8.281976 4.360881 3.292332 -10.280781 -16.743504 0.062500 10.783000
H 9.888819 11.817400 11.981284 -4.076417 -4.543026 -3.387686 0.062500 10.783000
O 9.568950 11.783643 11.958030 -2.450512 0.357247 -1.982658 1.000000 -21.566000
H 9.480403 11.733318 11.637601 0.682026 5.300835 -2.351033 0.062500 10.783000
H 9.252891 8.071655 11.773791 -9.104962 6.883401 21.012299 0.062500 10.783000
O 9.127757 8.307139 11.588457 1.881522 -3.213375 -1.632533 1.000000 -21.566000
H 9.141989 8.614780 11.701583 18.312603 -1.247057 10.005064 0.062500 10.783000
H 7.048305 11.503416 10.340435 -3.317219 4.932173 -4.618008 0.062500 10.783000
O 7.361476 11.441726 10.380165 0.752866 -0.948577 -5.069408 1.000000 -21.566000
H 7.416014 11.147387 10.287311 -1.720819 -3.043189 -4.214398 0.062500 10.783000
H 0.798815 5.502191 4.127535 -0.951768 2.731964 -9.253413 0.062500 10.783000
O 1.044957 5.339248 3.993215 1.962738 2.184961 0.281314 1.000000 -21.566000
H 0.985975 5.025991 3.920100 -10.765095 -9.007763 2.777113 0.062500 10.783000
H 4.554791 9.002272 2.772325 -6.003570 6.330337 -11.274374 0.062500 10.783000
O 4.824560 9.158238 2.765689 1.346062 2.733472 -0.846374 1.000000 -21.566000
H 4.941945 9.181041 3.061940 1.404304 1.546230 -1.126110 0.062500 10.783000
H 12.904835 6.836248 3.081643 4.931630 -4.655821 6.333846 0.062500 10.783000
O 12.940944 6.605610 3.279596 0.278356 0.946342 0.763289 1.000000 -21.566000
H 13.080326 6.366291 3.111879 -3.944192 10.767362 -3.543619 0.062500 10.783000
H 4.031677 8.604034 11.601065 -13.285379 -7.157071 -13.616436 0.062500 10.783000
O 3.835640 8.389170 11.737120 0.765197 2.353191 1.668999 1.000000 -21.566000
H 3.553568 8.450100 11.607903 4.385651 15.780948 -4.090162 0.062500 10.783000
H 3.878325 10.691751 13.287073 -4.058030 -0.859058 -0.337034 0.062500 10.783000
O 3.868621 10.370627 13.238789 1.106126 -0.741707 3.951632 1.000000 -21.566000
H 4.060422 10.273856 13.004312 5.960037 6.737247 -4.163377 0.062500 10.783000
H 4.954570 12.254861 13.571462 -1.587608 -9.098832 -11.929452 0.062500 10.783000
O 5.207145 12.113823 13.719261 -1.534003 -1.719051 2.480653 1.000000 -21.566000
H 5.067879 11.848096 13.830320 14.171346 -1.141233 -0.172451 0.062500 10.783000
H 14.545897 3.483617 2.491571 -7.382838 -9.786435 -4.871738 0.062500 10.783000
O 14.646180 3.542201 2.798885 2.120225 -2.617994 -1.554298 1.000000 -21.566000
H 14.477142 3.350003 2.996012 5.049197 3.909514 -17.636162 0.062500 10.783000
H 5.240486 0.490418 2.641135 -3.120386 6.037200 -4.354531 0.062500 10.783000
O 4.949278 0.356417 2.678981 -0.200135 2.227700 -0.587070 1.000000 -21.566000
H 4.985861 0.115769 2.873401 -6.731923 9.854251 5.955717 0.062500 10.783000
H 2.286480 7.444415 13.670240 -3.744826 -3.960256 -4.980228 0.062500 10.783000
O 2.328424 7.487976 13.983093 0.645193 -2.451452 -1.607816 1.000000 -21.566000
H 2.114333 7.725759 14.082909 -3.378411 3.931905 -10.363664 0.062500 10.783000
H 9.663106 12.270269 2.382604 6.521129 -1.816347 -1.300934 0.062500 10.783000
O 9.847557 12.535385 2.431717 0.536618 4.653823 -1.623085 1.000000 -21.566000
H 9.844861 12.644079 2.741233 -3.322298 -8.117963 5.844239 0.062500 10.783000
H 6.921926 14.538948 2.197091 -5.584208 4.029131 3.412769 0.062500 10.783000
O 6.633340 14.616968 2.122688 -5.591996 -0.928250 2.909683 1.000000 -21.566000
H 6.610855 14.596270 1.801960 11.937072 -1.599682 -5.782777 0.062500 10.783000
H 8.001545 0.531031 10.342470 4.892973 -7.750464 -13.077056 0.062500 10.783000
O 8.247254 0.537313 10.125649 -1.471982 -5.409821 0.075008 1.000000 -21.566000
H 8.408727 0.283155 10.232443 -4.093700 -2.854018 -5.818801 0.062500 10.783000
H 9.058895 11.777413 12.167118 -14.279642 -2.573871 6.373120 0.062500 10.783000
O 8.759416 11.787596 12.276403 -1.668454 1.146887 -1.857582 1.000000 -21.566000
H 8.517512 11.803616 12.051450 -9.338500 -12.041967 5.840214 0.062500 10.783000
H 11.580018 0.210615 1.327885 18.513890 2.630546 10.022800 0.062500 10.783000
O 11.613784 14.630322 1.260240 -1.206251 1.430838 0.858134 1.000000 -21.566000
H 11.882119 14.514812 1.388357 -0.031183 6.897591 -3.917661 0.062500 10.783000
H 13.118639 1.707440 11.207136 1.881942 -7.625937 17.640940 0.062500 10.783000
O 13.404902 1.881263 11.244334 -1.990693 1.737141 3.025025 1.000000 -21.566000
H 13.634197 1.717146 11.097634 -8.082551 -1.139785 10.075338 0.062500 10.783000
H 2.701111 14.161319 5.456536 -2.607572 -5.138061 -12.953068 0.062500 10.783000
O 2.681501 14.478649 5.536963 3.708749 0.334605 -1.336011 1.000000 -21.566000
H 2.506248 14.644581 5.329356 -4.249769 -5.204022 11.201588 0.062500 10.783000
H 1.842308 4.900709 5.282198 9.613237 4.899839 4.998558 0.062500 10.783000
O 1.750931 4.586572 5.247177 -3.251402 1.907274 -0.777422 1.000000 -21.566000
H 1.482515 4.552626 5.418145 -7.561941 -11.593273 -16.371855 0.062500 10.783000
H 1.955637 9.474986 1.459198 -5.802620 -1.902809 -0.972502 0.062500 10.783000
O 1.770820 9.269664 1.294622 4.289179 0.574104 -3.563393 1.000000 -21.566000
H 1.514160 9.151328 1.452207 5.143539 -4.138576 -7.534403 0.062500 10.783000
H 7.139764 11.147358 7.100820 -6.423313 8.106291 12.423023 0.062500 10.783000
O 7.068959 10.912351 7.305835 -1.441471 2.657035 1.438010 1.000000 -21.566000
H 6.890875 11.052527 7.550363 -4.444190 12.454398 -3.349356 0.062500 10.783000
H 14.076420 14.563631 13.275754 -8.927936 -8.860881 9.412575 0.062500 10.783000
O 14.214393 14.302752 13.363255 1.621373 0.531119 2.868454 1.000000 -21.566000
H 14.173882 14.138993 13.098863 2.640457 -2.634806 7.686059 0.062500 10.783000
H 4.908466 10.650618 13.670496 4.379279 5.789945 -8.351434 0.062500 10.783000
O 5.055149 10.408532 13.525596 1.102537 2.809945 2.201061 1.000000 -21.566000
H 5.348171 10.344576 13.648112 4.967065 2.380578 7.558839 0.062500 10.783000
H 1.536552 7.783088 12.361712 20.204317 -13.621953 9.315403 0.062500 10.783000
O 1.601949 7.769516 12.044338 0.901771 -1.698256 0.388772 1.000000 -21.566000
H 1.784106 7.989924 11.925314 3.428953 -6.626956 2.363416 0.062500 10.783000
H 9.533495 11.569287 1.990016 1.489305 -9.220466 -3.525896 0.062500 10.783000
O 9.474088 11.679154 2.286671 1.910091 0.997785 1.746428 1.000000 -21.566000
H 9.493756 11.419241 2.472638 6.166393 -13.036918 1.204455 0.062500 10.783000
H 8.534468 12.917169 8.851290 10.354047 -2.075764 9.228364 0.062500 10.783000
O 8.610564 12.699144 8.633071 4.282659 2.502970 0.651375 1.000000 -21.566000
H 8.875231 12.496390 8.677597 21.036813 3.689108 6.127124 0.062500 10.783000
H 9.372381 9.255728 9.392488 -2.952412 -0.321521 3.585061 0.062500 10.783000
O 9.621952 9.217361 9.587115 2.160454 0.641207 -2.604571 1.000000 -21.566000
H 9.532575 9.390238 9.842587 -7.010217 5.639495 -8.702598 0.062500 10.783000
H 3.421426 0.464401 12.827837 0.913967 6.595028 0.256609 0.062500 10.783000
O 3.454525 0.701124 12.604502 0.680459 0.899434 -1.305899 1.000000 -21.566000
H 3.147302 0.785062 12.501974 -1.091138 1.266678 2.177566 0.062500 10.783000
H 10.173883 6.386390 13.232993 -2.417044 -2.455554 1.262734 0.062500 10.783000
O 10.478614 6.320717 13.213293 -1.538725 2.853049 -0.761371 1.000000 -21.566000
H 10.609087 6.584489 13.091158 -1.359131 -4.747533 -0.851155 0.062500 10.783000
H 11.901941 14.317805 3.148325 -11.762083 -3.646333 2.719277 0.062500 10.783000
O 11.648139 14.500714 3.102669 0.518945 3.129292 2.730008 1.000000 -21.566000
H 11.526223 14.554546 3.403068 -5.095849 -0.466967 -5.998118 0.062500 10.783000
H 11.351194 11.540102 14.535575 -0.700651 -15.705426 -3.701342 0.062500 10.783000
O 11.204811 11.818685 14.466824 -0.594994 -3.736799 0.303799 1.000000 -21.566000
H 11.287051 12.024727 14.694233 -2.611285 -5.505535 11.923243 0.062500 10.783000
H 11.796397 11.044605 9.737835 4.710492 -4.442994 -9.857100 0.062500 10.783000
O 11.943718 11.142113 10.017707 -2.059038 0.462086 2.174915 1.000000 -21.566000
H 12.066847 10.924590 10.208100 -5.845505 -1.272424 1.320782 0.062500 10.783000
H 6.000787 14.439824 6.952613 8.614698 4.310723 5.899709 0.062500 10.783000
O 6.182818 14.498514 6.688620 -1.195987 0.461423 1.004594 1.000000 -21.566000
H 6.092096 14.429167 6.399970 -3.301908 0.085057 3.813565 0.062500 10.783000
H 0.254658 13.515385 8.031328 3.284834 -3.442979 -5.836863 0.062500 10.783000
O 14.680609 13.543043 7.947042 -1.932461 -0.881612 1.399430 1.000000 -21.566000
H 14.471113 13.583101 8.194852 -5.758514 -20.422139 0.828324 0.062500 10.783000
H 10.922056 10.235733 9.489308 -11.769131 -14.746554 -6.201556 0.062500 10.783000
O 11.148728 10.039959 9.593838 1.618886 1.321340 -1.627206 1.000000 -21.566000
H 11.329932 10.238761 9.771869 4.586619 10.127928 10.207767 0.062500 10.783000
H 10.863898 6.997146 10.151571 -1.569952 -2.854651 10.578492 0.062500 10.783000
O 10.582017 6.858613 10.271290 -3.967048 -3.544377 0.550085 1.000000 -21.566000
H 10.531652 6.634471 10.048550 -7.086332 16.548935 6.832637 0.062500 10.783000
H 7.611999 12.600038 9.378982 4.456410 -10.815059 -13.213628 0.062500 10.783000
O 7.545238 12.907873 9.412087 0.044306 -3.433743 2.034414 1.000000 -21.566000
H 7.808561 13.097290 9.344077 1.563152 -1.035090 -8.061001 0.062500 10.783000
H 4.392202 12.169035 9.971914 -5.388002 5.686140 -6.709997 0.062500 10.783000
O 4.205584 12.272765 9.727878 -2.742600 -0.222192 -1.537027 1.000000 -21.566000
H 3.977521 12.429337 9.883279 -8.862953 3.194879 2.689090 0.062500 10.783000
H 0.896252 11.517690 14.733593 -6.724419 -10.405888 -3.140513 0.062500 10.783000
O 1.063981 11.643647 14.478572 3.338005 1.271471 -0.301234 1.000000 -21.566000
H 0.975285 11.432673 14.235948 16.093286 -11.282121 -7.990597 0.062500 10.783000
H 9.211676 5.383394 2.215095 5.930610 4.285461 2.377989 0.062500 10.783000
O 9.122277 5.210988 1.959928 0.655254 -1.681600 1.026419 1.000000 -21.566000
H 8.974430 5.368201 1.727169 6.179050 -0.293237 0.536870 0.062500 10.783000
H 3.383541 14.209161 10.821413 -7.678417 5.513421 -10.027108 0.062500 10.783000
O 3.124850 14.244902 11.010391 1.670625 -0.337797 -2.495274 1.000000 -21.566000
H 3.077887 14.556690 11.005335 2.707052 -2.752091 3.221954 0.062500 10.783000
H 3.714192 10.351495 1.606784 1.541205 -2.977257 -2.137668 0.062500 10.783000
O 3.409967 10.356515 1.539607 0.208267 1.311083 4.174160 1.000000 -21.566000
H 3.206111 10.198145 1.748125 -1.904854 6.134818 1.532202 0.062500 10.783000
H 7.297351 6.960602 2.598349 -0.916211 -9.213552 -0.716570 0.062500 10.783000
O 6.972585 6.927129 2.626277 0.878736 4.922920 4.168999 1.000000 -21.566000
H 6.815968 7.173209 2.761405 1.774760 -7.503539 6.347465 0.062500 10.783000
H 7.604071 0.290048 4.440973 21.245776 3.220733 7.699168 0.062500 10.783000
O 7.556134 0.544371 4.257035 0.766469 3.942997 -1.792917 1.000000 -21.566000
H 7.262255 0.642351 4.195388 0.856741 9.021644 -3.837545 0.062500 10.783000
H 2.091481 11.686931 4.625060 -4.898945 6.856232 2.752967 0.062500 10.783000
O 2.307072 11.771723 4.405251 0.453882 -2.529413 2.669391 1.000000 -21.566000
H 2.273669 12.070156 4.280078 -1.635192 -2.805547 2.365494 0.062500 10.783000
H 7.059817 10.035021 10.969756 -7.905566 8.165901 -10.425785 0.062500 10.783000
O 6.893500 9.862963 10.749315 -4.672267 -1.803199 0.309530 1.000000 -21.566000
H 6.598788 9.807145 10.896067 0.246614 -3.519603 5.506656 0.062500 10.783000
H 12.025484 5.740031 6.556214 4.734360 -4.191698 0.162857 0.062500 10.783000
O 11.878410 5.492549 6.428812 1.863551 -3.066245 -0.637826 1.000000 -21.566000
H 11.588814 5.573538 6.307727 -7.231014 -19.300548 0.599186 0.062500 10.783000
H 1.242887 5.423605 13.454276 -7.767534 6.068146 -0.892692 0.062500 10.783000
O 1.123846 5.120515 13.446440 2.739246 2.562710 1.376481 1.000000 -21.566000
H 1.170960 5.085977 13.769072 2.043304 18.520133 -4.194423 0.062500 10.783000
H 14.121531 2.234164 10.784845 -6.391644 1.143863 -1.227038 0.062500 10.783000
O 14.133409 2.090926 10.497146 -0.402487 -0.160491 1.694148 1.000000 -21.566000
H 13.963800 2.282928 10.320159 3.290379 8.209563 8.426603 0.062500 10.783000
H 14.057560 12.417636 9.753253 3.111585 10.308537 3.095505 0.062500 10.783000
O 13.786915 12.494527 9.895331 -0.808166 -1.334189 1.475978 1.000000 -21.566000
H 13.873912 12.733011 10.119045 4.665449 1.434308 3.690503 0.062500 10.783000
H 12.621852 10.954897 9.352463 -6.883045 -3.571364 4.237552 0.062500 10.783000
O 12.642560 11.203368 9.150755 -0.323613 -0.218559 3.449013 1.000000 -21.566000
H 12.523887 11.138464 8.863896 8.727258 2.706090 1.123567 0.062500 10.783000
H 4.309949 7.516559 12.082493 -9.141369 -1.284988 1.245812 0.062500 10.783000
O 4.242562 7.772490 12.260476 -1.812222 2.263969 -1.897031 1.000000 -21.566000
H 4.023685 7.925495 12.085101 -1.611452 -4.508079 -11.471849 0.062500 10.783000
H 12.596569 10.056846 3.346663 -5.374300 -1.695655 -1.541861 0.062500 10.783000
O 12.350140 10.241952 3.328153 0.873621 1.351080 -2.823240 1.000000 -21.566000
H 12.402767 10.515881 3.159446 12.285196 3.065452 -7.366096 0.062500 10.783000
H 8.951156 9.087080 12.242133 -7.711888 4.016550 6.341284 0.062500 10.783000
O 9.040687 9.178744 11.946095 0.729960 -0.160805 2.671392 1.000000 -21.566000
H 9.271479 9.396051 12.006385 -6.744769 -7.069754 0.613919 0.062500 10.783000
H 14.581070 13.714548 0.006258 8.267787 8.770061 0.998634 0.062500 10.783000
O 14.485557 13.545998 0.269101 -2.176655 3.008165 -0.160415 1.000000 -21.566000
H 0.015372 13.540718 0.443598 -5.308592 14.845587 2.771384 0.062500 10.783000
H 12.334279 11.957420 7.697761 9.098243 -3.382717 -2.401427 0.062500 10.783000
O 12.076546 11.945317 7.894046 -0.499612 -0.878169 -1.507030 1.000000 -21.566000
H 11.802983 11.934949 7.737369 6.048629 2.967636 8.012394 0.062500 10.783000
H 13.256921 11.642979 0.050362 7.040379 0.004118 -2.691760 0.062500 10.783000
O 13.467282 11.405922 0.017806 2.830963 1.738570 0.880363 1.000000 -21.566000
H 13.320032 11.126065 14.684045 7.045576 6.014333 -5.783484 0.062500 10.783000
H 9.751908 10.277454 14.026103 -3.713925 1.616422 14.842804 0.062500 10.783000
O 9.614559 9.989239 14.082899 0.698287 1.958826 -0.467163 1.000000 -21.566000
H 9.557372 9.953167 14.401762 8.354951 3.410467 8.192361 0.062500 10.783000
H 8.536508 2.185394 2.965301 -5.145563 0.984614 -6.672465 0.062500 10.783000
O 8.651775 2.454040 3.107149 -4.723310 -0.044858 0.029364 1.000000 -21.566000
H 8.939358 2.367834 3.220330 15.609779 2.285619 -0.485733 0.062500 10.783000
H 4.789347 0.900285 10.795726 -0.624568 -4.570337 -2.481744 0.062500 10.783000
O 4.749164 0.900431 10.476137 0.182325 0.663188 2.604969 1.000000 -21.566000
H 4.569800 1.147430 10.366978 -2.838945 3.380414 -9.554007 0.062500 10.783000
H 11.403579 14.150427 0.305501 3.310887 -5.363486 4.608731 0.062500 10.783000
O 11.528846 14.435956 0.347749 -3.196578 -0.013806 -2.365748 1.000000 -21.566000
H 11.567535 14.446477 0.657367 2.721271 0.173098 -4.443521 0.062500 10.783000
H 8.522875 12.601971 6.250951 -1.774752 -1.878147 1.888200 0.062500 10.783000
O 8.739589 12.713372 6.056072 -1.472963 -2.332126 1.194814 1.000000 -21.566000
H 8.601120 12.819535 5.783981 -11.592170 -2.253522 9.660985 0.062500 10.783000
H 13.630977 6.780934 11.607511 2.632298 8.506501 -1.829559 0.062500 10.783000
O 13.784482 6.871348 11.349428 -2.012938 -0.057832 -1.801393 1.000000 -21.566000
H 13.628683 6.739193 11.098890 8.588279 -0.210121 0.906351 0.062500 10.783000
H 11.660420 1.564433 8.901382 12.254227 5.902678 -5.883745 0.062500 10.783000
O 11.406184 1.409748 8.753005 0.573878 0.168057 0.576482 1.000000 -21.566000
H 11.522576 1.183714 8.563240 7.926007 6.030842 7.217976 0.062500 10.783000
H 12.637012 12.807794 10.157631 5.932226 5.068697 -19.367027 0.062500 10.783000
O 12.479203 13.024126 10.349828 -2.160744 -4.518434 2.147560 1.000000 -21.566000
H 12.176123 12.918063 10.331257 6.362230 -8.671155 7.202733 0.062500 10.783000
H 0.886619 3.113138 11.306544 0.121500 -5.618671 -3.504854 0.062500 10.783000
O 0.949348 3.186742 11.620166 2.292541 0.129972 0.963618 1.000000 -21.566000
H 0.921686 3.510356 11.668646 1.500423 9.858430 -4.123829 0.062500 10.783000
H 0.932785 11.045436 10.758990 8.436198 0.537220 -8.752183 0.062500 10.783000
O 0.965298 11.364885 10.735035 -3.011952 2.138200 2.195553 1.000000 -21.566000
H 1.279832 11.466225 10.747195 4.057558 -3.435423 -5.453160 0.062500 10.783000
H 4.760116 14.695870 0.166012 4.250137 6.148216 -1.976999 0.062500 10.783000
O 4.698617 14.389546 0.236092 -1.192400 -0.475085 -0.134406 1.000000 -21.566000
H 4.744005 14.387760 0.558310 1.693836 6.985792 5.063695 0.062500 10.783000
H 1.110070 12.734800 13.745084 -2.939598 2.047520 -10.537792 0.062500 10.783000
O 0.823680 12.868573 13.692431 -1.143669 1.775818 -0.595363 1.000000 -21.566000
H 0.774225 12.971231 13.392492 5.476283 -14.955952 -9.444158 0.062500 10.783000
H 6.308132 2.064275 2.886783 -5.204570 -3.536578 7.192902 0.062500 10.783000
O 6.299499 1.794359 2.696282 0.881518 1.687255 0.653601 1.000000 -21.566000
H 6.580133 1.805796 2.546958 -5.714640 8.248717 0.093223 0.062500 10.783000
H 7.615259 1.935100 3.305982 -5.225793 -12.230092 1.679935 0.062500 10.783000
O 7.690645 1.639401 3.208324 -1.351744 -1.689205 3.959314 1.000000 -21.566000
H 7.789724 1.428936 3.432212 -5.673967 -7.309203 0.357294 0.062500 10.783000
H 5.621111 9.370120 9.166035 -0.281298 -6.212196 -6.338829 0.062500 10.783000
O 5.356626 9.475791 9.311406 1.571547 2.299838 -1.100837 1.000000 -21.566000
H 5.286461 9.790751 9.240685 -7.585457 4.948393 -9.629737 0.062500 10.783000
H 0.641698 0.787699 11.888659 -0.888307 0.675806 11.885492 0.062500 10.783000
O 0.698095 1.015786 11.674465 0.159844 -5.171905 0.676416 1.000000 -21.566000
H 0.858141 0.919244 11.403492 11.940114 0.903677 1.956003 0.062500 10.783000
H 6.419462 13.820633 14.560885 -3.186903 4.806542 -1.877840 0.062500 10.783000
O 6.568360 14.105362 14.494336 1.046477 -0.319797 0.672232 1.000000 -21.566000
H 6.324006 14.317368 14.437066 -5.119784 -5.457145 -0.856878 0.062500 10.783000
H 7.811483 10.955843 1.455383 4.617271 1.409909 4.872354 0.062500 10.783000
O 8.057553 11.072328 1.615119 3.413990 -0.705453 1.091435 1.000000 -21.566000
H 7.910160 11.321050 1.738383 -11.161970 -6.680803 16.895046 0.062500 10.783000
H 10.630184 0.975113 2.561076 -10.206741 3.761788 -2.333998 0.062500 10.783000
O 10.456804 0.886394 2.313957 0.334620 0.490557 1.766849 1.000000 -21.566000
H 10.563634 0.592817 2.231276 11.024306 1.562333 -0.670175 0.062500 10.783000
H 12.812956 0.182404 1.304798 -2.277505 -8.941537 -6.048161 0.062500 10.783000
O 12.852598 14.668064 1.136893 2.053973 -0.819982 0.070288 1.000000 -21.566000
H 12.931348 0.054730 0.849302 9.081769 4.952716 -7.398586 0.062500 10.783000
H 11.856417 1.699781 5.938693 -0.460788 0.226486 -13.649584 0.062500 10.783000
O 11.834434 1.409323 5.810759 -0.939815 1.796339 -1.555307 1.000000 -21.566000
H 12.107694 1.240600 5.812981 3.058499 -2.889763 -15.023816 0.062500 10.783000
H 0.344885 14.623002 0.793987 9.266393 10.328510 -1.415997 0.062500 10.783000
O 0.172027 0.060677 0.996377 3.292979 -0.586099 0.040911 1.000000 -21.566000
H 0.130474 0.367546 0.914975 11.827840 -7.642340 -4.633736 0.062500 10.783000
H 0.545045 1.041958 9.072485 4.790247 -4.615574 2.623640 0.062500 10.783000
O 0.473932 0.746340 9.206752 -2.087948 0.246884 0.117512 1.000000 -21.566000
H 0.191801 0.615317 9.099871 8.202084 -2.967392 6.108314 0.062500 10.783000
H 3.250868 0.554463 0.078325 -11.436333 -4.417530 7.846833 0.062500 10.783000
O 3.130610 0.477107 0.355602 0.680637 -0.758504 -1.823156 1.000000 -21.566000
H 3.334360 0.249893 0.454956 -7.682431 12.596109 2.503168 0.062500 10.783000
H 14.114049 5.908445 9.837513 4.335627 -2.225621 2.065897 0.062500 10.783000
O 14.431793 5.939541 9.780961 -0.551713 -0.822011 0.172248 1.000000 -21.566000
H 14.467992 6.142828 9.527837 13.129419 -6.685511 -5.357066 0.062500 10.783000
H 5.816313 11.941759 12.633334 -0.036319 -8.481626 2.584263 0.062500 10.783000
O 5.691559 12.235297 12.634121 -2.483386 -0.042019 1.409672 1.000000 -21.566000
H 5.804065 12.384279 12.368885 3.627169 -12.465557 -0.001316 0.062500 10.783000
H 9.726628 3.914389 1.023748 5.421360 -14.213080 -11.652720 0.062500 10.783000
O 9.649399 4.060686 0.736691 -3.296945 -2.537555 1.030895 1.000000 -21.566000
H 9.383337 4.244909 0.749399 -5.631105 13.331409 -23.265810 0.062500 10.783000
H 5.614798 11.258964 10.617548 16.671488 -2.579572 -8.498713 0.062500 10.783000
O 5.592565 10.938047 10.568360 2.836425 -1.118143 -1.228754 1.000000 -21.566000
H 5.731546 10.870359 10.278315 10.181032 -15.661172 -2.214486 0.062500 10.783000
H 0.910231 3.473634 0.569954 10.310052 -2.010044 2.362640 0.062500 10.783000
O 0.975495 3.255264 0.348913 0.580793 -6.113100 -2.279935 1.000000 -21.566000
H 1.299149 3.277087 0.312902 -3.748804 3.959683 -6.993598 0.062500 10.783000
H 13.831853 11.811842 13.582135 -7.791844 2.479003 -2.597187 0.062500 10.783000
O 13.976696 11.556645 13.697431 -3.777882 -1.278178 -0.043450 1.000000 -21.566000
H 14.188670 11.487591 13.468042 6.710045 -1.902826 7.765591 0.062500 10.783000
H 5.891408 11.468922 9.531779 -8.603439 1.225724 0.839521 0.062500 10.783000
O 5.763193 11.670603 9.317550 0.551622 2.712627 -1.694265 1.000000 -21.566000
H 5.824652 11.982287 9.363335 -9.545177 10.425693 2.293140 0.062500 10.783000
H 9.072091 5.548961 1.079416 -1.069077 4.367936 0.762812 0.062500 10.783000
O 8.814976 5.695760 1.204668 0.460458 2.661873 -0.670095 1.000000 -21.566000
H 8.564318 5.688067 1.004030 3.406677 8.245013 6.412042 0.062500 10.783000
H 8.178381 12.212811 2.524158 6.618260 -13.101885 4.514077 0.062500 10.783000
O 7.902486 12.112485 2.666961 0.326992 0.672471 1.850538 1.000000 -21.566000
H 7.692195 12.335782 2.588362 6.275487 6.338905 2.209935 0.062500 10.783000
H 9.837167 13.181831 4.547055 2.602886 -4.763559 1.046275 0.062500 10.783000
O 9.534003 13.160614 4.450560 2.544547 1.387347 0.352900 1.000000 -21.566000
H 9.439402 13.436813 4.292132 -1.033078 -6.821264 -1.386321 0.062500 10.783000
H 11.393488 4.036329 6.314500 -8.662585 0.941280 -6.382165 0.062500 10.783000
O 11.703894 3.952371 6.355297 -1.116938 0.896660 -0.334590 1.000000 -21.566000
H 11.690974 3.849234 6.656791 4.475514 -4.479660 -8.961313 0.062500 10.783000
H 11.516049 2.656697 8.244376 -11.583663 6.332303 5.871368 0.062500 10.783000
O 11.528957 2.829551 8.523622 1.595239 -1.068262 -0.921846 1.000000 -21.566000
H 11.584407 3.117391 8.397605 5.492073 -0.592368 7.764182 0.062500 10.783000
H 14.606174 13.129276 8.656062 0.261949 6.906836 8.664115 0.062500 10.783000
O 14.382904 13.085896 8.883510 -1.605788 1.180641 -2.624394 1.000000 -21.566000
H 14.422428 12.827288 9.078372 5.961795 -13.909704 5.806434 0.062500 10.783000
H 13.406663 13.930779 10.021849 -3.767994 -11.685095 1.998069 0.062500 10.783000
O 13.594338 13.759187 9.828337 1.262201 2.486358 2.721340 1.000000 -21.566000
H 13.388111 13.605571 9.619881 -2.151885 8.210397 -3.312062 0.062500 10.783000
H 2.378474 4.173711 11.356998 -1.647921 -10.334369 -9.790693 0.062500 10.783000
O 2.635344 3.983034 11.350281 0.490158 -1.533385 1.173833 1.000000 -21.566000
H 2.688545 3.875528 11.651753 -11.170964 -5.912552 -0.383194 0.062500 10.783000
H 6.267375 11.681919 14.348002 -0.771530 1.225246 -14.763420 0.062500 10.783000
O 6.307901 11.407797 14.177190 -0.523013 1.462486 -1.086317 1.000000 -21.566000
H 6.583737 11.496636 14.035316 5.853202 0.002338 12.710254 0.062500 10.783000
H 2.943322 11.384310 12.008952 -8.096832 -17.778297 16.689930 0.062500 10.783000
O 3.213912 11.551024 12.092131 -0.035605 -1.770888 -1.652966 1.000000 -21.566000
H 3.447070 11.320502 12.100373 0.471599 -5.478609 3.587471 0.062500 10.783000
H 14.159948 3.301611 12.563016 9.023400 7.188337 -3.178039 0.062500 10.783000
O 14.102767 3.408366 12.253336 1.547023 0.500206 0.481424 1.000000 -21.566000
H 14.337713 3.555270 12.087312 12.230441 -9.039843 -3.915930 0.062500 10.783000
H 10.304163 11.807291 3.427851 2.429472 9.735451 -1.462003 0.062500 10.783000
O 10.004342 11.907314 3.392006 0.867871 0.124038 -0.419601 1.000000 -21.566000
H 9.945011 11.979628 3.081407 4.093730 -0.432871 12.233000 0.062500 10.783000
H 4.129119 13.586135 8.998540 -3.906685 -9.159967 -12.580551 0.062500 10.783000
O 4.167278 13.390590 9.260276 -1.002321 -1.577242 2.012353 1.000000 -21.566000
H 3.927406 13.171512 9.219304 -5.358765 -6.278677 2.538952 0.062500 10.783000
H 5.838885 13.163401 5.406060 -10.507001 4.038685 3.059776 0.062500 10.783000
O 5.546675 13.255950 5.323835 0.880304 -0.653229 2.520624 1.000000 -21.566000
H 5.466135 13.501043 5.507771 -4.533418 0.253288 -2.862789 0.062500 10.783000
H 13.728688 4.128327 1.977136 1.369655 -19.604725 10.396385 0.062500 10.783000
O 13.403778 4.144105 1.997337 1.658290 1.795132 -3.145286 1.000000 -21.566000
H 13.326705 4.237802 2.294129 1.800527 11.184115 7.509531 0.062500 10.783000
H 2.957067 3.007651 2.109539 8.395935 -5.335595 -13.746890 0.062500 10.783000
O 2.720838 2.834883 2.292764 -2.916505 2.137718 1.789724 1.000000 -21.566000
H 2.791336 2.531333 2.177453 14.021371 -0.844150 4.087173 0.062500 10.783000
H 6.595786 14.610282 8.968534 9.527854 -0.253931 -6.571035 0.062500 10.783000
O 6.870196 14.703335 8.834853 -2.220957 2.302992 0.833914 1.000000 -21.566000
H 6.946368 0.270445 8.891752 8.615353 -1.856810 -3.617353 0.062500 10.783000
H 10.652042 2.222001 6.800531 -1.269449 -18.391546 -5.475828 0.062500 10.783000
O 10.769458 2.282737 7.096197 -2.593195 -3.282490 0.069654 1.000000 -21.566000
H 10.793406 1.983325 7.230675 2.946460 -1.872822 -2.429279 0.062500 10.783000
H 6.726055 14.576282 0.872759 -8.753136 3.138738 -7.971262 0.062500 10.783000
O 6.668182 14.653736 1.186274 2.792326 -0.520637 -0.338277 1.000000 -21.566000
H 6.343470 14.644503 1.197574 0.008156 3.288681 -9.164548 0.062500 10.783000
H 11.890310 11.984017 1.931388 -6.146452 1.722654 -4.578802 0.062500 10.783000
O 11.833547 12.303321 1.982646 0.350930 2.211744 -1.761383 1.000000 -21.566000
H 11.651037 12.386404 2.236475 4.999270 2.154862 1.323694 0.062500 10.783000
H 0.617367 6.519251 1.262804 -11.856577 -4.414597 -10.480068 0.062500 10.783000
O 0.802478 6.347821 1.074576 0.333884 -0.422402 1.208990 1.000000 -21.566000
H 0.617373 6.270432 0.829323 2.308459 -6.908530 -0.187219 0.062500 10.783000
H 12.886812 12.709125 11.281012 -5.608448 3.729281 -7.729649 0.062500 10.783000
O 12.826810 12.429525 11.407599 -1.520571 2.558177 1.199178 1.000000 -21.566000
H 12.575946 12.313294 11.243097 9.531718 2.956793 1.147499 0.062500 10.783000
H 14.305031 3.675949 13.424191 -8.966941 -3.562294 3.128611 0.062500 10.783000
O 14.542466 3.461629 13.448255 -3.175173 2.737168 -1.701469 1.000000 -21.566000
H 0.068998 3.618685 13.384259 -0.777286 -17.197006 -11.171118 0.062500 10.783000
H 5.322845 11.629680 11.787545 0.658327 -4.553028 1.330983 0.062500 10.783000
O 5.321863 11.925311 11.673662 1.839126 -1.891432 0.508200 1.000000 -21.566000
H 5.037878 12.029809 11.754585 2.242248 -4.135844 -3.899839 0.062500 10.783000
H 6.749843 13.458599 9.078228 -1.166927 4.815206 9.165886 0.062500 10.783000
O 6.750379 13.179641 8.927033 2.042972 -0.955753 3.354219 1.000000 -21.566000
H 7.037050 13.050644 9.002226 10.289552 -4.626143 -5.165403 0.062500 10.783000
H 7.577244 14.153480 1.481082 -8.312083 3.415698 2.415610 0.062500 10.783000
O 7.487304 14.451479 1.400895 -3.173767 1.859635 2.926032 1.000000 -21.566000
H 7.176395 14.436470 1.374957 -2.425708 7.822501 -0.720127 0.062500 10.783000
H 9.245734 10.642133 14.039421 -0.279134 10.708554 4.809101 0.062500 10.783000
O 9.028878 10.821405 14.190877 3.226792 1.474037 1.021315 1.000000 -21.566000
H 8.819174 10.949458 13.977511 1.567520 4.121916 20.593720 0.062500 10.783000
H 9.043939 9.650800 8.291866 7.933543 6.522248 9.659691 0.062500 10.783000
O 8.975529 9.946879 8.176532 1.215609 -0.933443 -0.162026 1.000000 -21.566000
H 8.656830 9.943614 8.098312 3.439592 4.399370 5.337088 0.062500 10.783000
H 8.796591 12.387647 11.518394 2.219232 0.234721 8.760240 0.062500 10.783000
O 9.062285 12.519966 11.403115 -1.864218 -1.560165 -2.310524 1.000000 -21.566000
H 9.243566 12.271258 11.298106 16.156752 6.550616 -2.817052 0.062500 10.783000
H 2.066225 4.142071 1.751450 9.534197 14.417745 8.896324 0.062500 10.783000
O 2.360014 4.063981 1.842873 2.080453 -1.691902 -1.257946 1.000000 -21.566000
H 2.531738 4.341376 1.856078 0.996832 -2.456745 -1.178691 0.062500 10.783000
H 9.514979 3.043935 10.693614 -8.464679 3.293552 5.193153 0.062500 10.783000
O 9.427165 2.737729 10.650074 0.131588 4.979273 1.916003 1.000000 -21.566000
H 9.154253 2.688887 10.793985 -6.547290 -6.852965 -5.866010 0.062500 10.783000
H 9.616552 12.579015 1.090053 3.837305 1.365993 -4.907621 0.062500 10.783000
O 9.502632 12.767315 1.304262 0.600107 4.035181 -1.223918 1.000000 -21.566000
H 9.391676 12.982078 1.084967 -16.702084 -14.990264 -18.614447 0.062500 10.783000
H 13.688445 1.329283 11.920892 8.729121 4.232022 -5.562633 0.062500 10.783000
O 13.692888 1.013692 11.925864 2.924858 -4.094913 -1.565902 1.000000 -21.566000
H 13.390718 0.926237 11.974165 1.461639 11.092438 6.030541 0.062500 10.783000
H 6.489388 12.821370 1.085785 -5.416724 -9.465203 3.481179 0.062500 10.783000
O 6.660385 12.598126 1.235952 0.214184 0.122983 3.257489 1.000000 -21.566000
H 6.559146 12.319967 1.096073 -6.856605 -4.645363 -7.874637 0.062500 10.783000
H 11.079045 10.985094 12.418364 -3.277436 7.316877 0.035017 0.062500 10.783000
O 10.884732 11.080350 12.654996 0.895978 0.425554 -0.787659 1.000000 -21.566000
H 11.060953 11.125413 12.911298 9.848515 -3.007338 -4.905638 0.062500 10.783000
H 12.669672 10.765751 2.132622 1.536264 11.719980 9.976563 0.062500 10.783000
O 12.403809 10.610125 2.199591 0.185995 -0.233569 0.792451 1.000000 -21.566000
H 12.411444 10.320383 2.066693 -3.866001 3.917607 -0.430945 0.062500 10.783000
H 5.512124 4.860186 2.683030 1.993168 -8.031298 4.793664 0.062500 10.783000
O 5.749401 4.642984 2.641235 2.836821 -2.449235 3.228972 1.000000 -21.566000
H 5.607251 4.392572 2.478702 12.148103 5.906844 -14.896702 0.062500 10.783000
H 3.880763 14.385671 12.274031 7.820697 8.473158 -6.914270 0.062500 10.783000
O 3.580597 14.314635 12.400133 0.686042 0.147016 -0.441165 1.000000 -21.566000
H 3.410264 14.148056 12.186317 -15.058034 -8.691497 1.301788 0.062500 10.783000
H 12.134259 14.187042 7.660081 14.413340 -0.096301 9.452144 0.062500 10.783000
O 12.120189 13.866617 7.630784 2.629384 3.024564 -1.371805 1.000000 -21.566000
H 12.191388 13.767404 7.921207 6.091554 -0.674030 0.253908 0.062500 10.783000
H 14.112113 1.546520 10.678718 8.370354 -9.810088 -5.509430 0.062500 10.783000
O 13.921389 1.317795 10.804978 -4.085285 -2.206780 -3.331224 1.000000 -21.566000
H 14.086404 1.184025 11.019837 -3.405737 5.296697 -11.947731 0.062500 10.783000
H 13.010223 14.300521 11.022813 -0.245907 2.259669 -5.154193 0.062500 10.783000
O 12.771724 14.450774 11.162805 -3.314344 1.656454 0.326173 1.000000 -21.566000
H 12.878900 0.020739 11.195959 0.683932 -0.528385 9.377248 0.062500 10.783000
H 6.073742 1.417857 0.742697 -0.025659 -5.711491 2.866997 0.062500 10.783000
O 5.785430 1.301308 0.686381 -0.461357 1.555698 1.308783 1.000000 -21.566000
H 5.588053 1.506763 0.546348 -3.650675 12.741004 -5.004519 0.062500 10.783000
H 9.782761 3.612481 1.749641 -5.062201 9.104597 -8.796026 0.062500 10.783000
O 9.608765 3.547196 1.482610 -0.568140 1.867499 -3.171451 1.000000 -21.566000
H 9.367647 3.346027 1.514656 1.561746 7.980335 -4.423899 0.062500 10.783000
H 1.296667 3.418952 13.527898 2.839155 1.073236 -6.491054 0.062500 10.783000
O 1.472508 3.660962 13.411086 -4.454360 -1.169005 -0.799168 1.000000 -21.566000
H 1.669310 3.699040 13.663893 4.008876 -11.315685 -0.501328 0.062500 10.783000
H 13.647916 12.681083 1.818974 -4.373423 12.003471 8.229345 0.062500 10.783000
O 13.448595 12.698208 2.075202 -1.696773 -0.808975 1.883043 1.000000 -21.566000
H 13.580001 12.672156 2.350638 -3.181678 -2.596751 10.123320 0.062500 10.783000
H 3.983708 11.307473 13.004404 -12.439023 -3.960100 -8.957474 0.062500 10.783000
O 3.868686 11.210290 13.292361 2.142213 0.207853 2.030817 1.000000 -21.566000
H 3.639100 11.409951 13.397883 -1.053428 -2.234307 -6.741829 0.062500 10.783000
H 8.876699 1.217876 3.233195 -10.011236 8.125493 -5.669323 0.062500 10.783000
O 9.064282 1.371677 3.027065 -0.166821 -0.015080 -0.647397 1.000000 -21.566000
H 9.276397 1.132918 2.939009 3.260084 -2.059349 20.070922 0.062500 10.783000
H 10.464289 9.486331 12.630919 4.772274 -2.861487 -8.355926 0.062500 10.783000
O 10.407106 9.233513 12.442848 2.072134 1.791604 -0.147198 1.000000 -21.566000
H 10.463642 9.344215 12.141760 1.095354 14.428247 -2.545999 0.062500 10.783000
H 9.735008 2.685214 12.936023 12.881924 -0.614457 -4.007396 0.062500 10.783000
O 9.826153 2.955659 12.803236 -1.302056 2.268666 0.647859 1.000000 -21.566000
H 9.846057 2.881416 12.499140 -0.629217 9.784788 2.091388 0.062500 10.783000
H 8.364847 14.354282 3.573396 -5.856044 1.089633 4.669657 0.062500 10.783000
O 8.480324 14.212458 3.835689 -3.158012 -1.565078 -2.671291 1.000000 -21.566000
H 8.255106 13.978991 3.921545 11.896866 6.467498 8.469418 0.062500 10.783000
H 11.205521 7.924283 12.311441 -15.419582 -3.346387 -7.146551 0.062500 10.783000
O 11.203400 7.626888 12.211632 -1.384015 -1.415082 -1.204271 1.000000 -21.566000
H 11.498053 7.518819 12.145015 6.774959 -0.774779 2.008241 0.062500 10.783000
H 1.841867 14.081230 2.028025 -10.853166 10.219790 -0.300947 0.062500 10.783000
O 1.693162 14.086352 2.309435 0.177136 -0.528555 0.707759 1.000000 -21.566000
H 1.385231 14.159973 2.254263 -9.090309 -10.367397 15.816805 0.062500 10.783000
H 1.431587 14.339124 14.244170 -4.934824 3.780529 -0.486170 0.062500 10.783000
O 1.588234 14.508646 14.024932 0.478160 -0.258013 1.562999 1.000000 -21.566000
H 1.365028 14.635385 13.851882 -2.888899 -7.606071 -1.481442 0.062500 10.783000
H 13.019232 11.773999 2.484135 -4.963924 10.218989 0.125875 0.062500 10.783000
O 12.759159 11.618556 2.579118 1.668027 1.394986 4.279501 1.000000 -21.566000
H 12.501767 11.797842 2.521678 -3.008867 -0.257630 -8.324253 0.062500 10.783000
H 13.621765 2.774839 9.726759 -2.767494 -0.166912 5.087928 0.062500 10.783000
O 13.655095 2.675497 10.033920 -0.609436 1.055490 -2.600844 1.000000 -21.566000
H 13.731894 2.926530 10.226232 -4.564929 11.083175 3.175631 0.062500 10.783000
H 4.096856 10.305768 2.677376 -3.032674 2.802381 -4.015749 0.062500 10.783000
O 3.992792 10.572432 2.837865 -1.097422 1.837375 -0.232999 1.000000 -21.566000
H 3.952477 10.787226 2.599089 9.803987 8.949087 -8.828172 0.062500 10.783000
H 2.671285 4.749741 4.603007 7.137675 -14.338397 12.458213 0.062500 10.783000
O 2.863377 4.926428 4.404244 -0.028753 0.790233 -2.910599 1.000000 -21.566000
H 2.877074 5.243181 4.508238 11.578059 8.619914 -5.326690 0.062500 10.783000
H 7.877029 14.450718 10.893418 5.452494 -3.449262 5.351735 0.062500 10.783000
O 8.005629 14.251098 10.667314 -1.428895 2.992540 -1.516325 1.000000 -21.566000
H 8.299601 14.366640 10.634007 7.364684 4.648512 3.388373 0.062500 10.783000
H 7.384562 14.305447 4.773606 12.593186 3.982049 12.176434 0.062500 10.783000
O 7.517306 14.348966 4.500432 -0.175797 0.467898 1.223759 1.000000 -21.566000
H 7.824072 14.267923 4.503801 -5.328906 -1.471215 -0.468075 0.062500 10.783000
H 11.008239 0.560800 13.589932 -13.013778 5.154224 2.950797 0.062500 10.783000
O 10.990815 0.272304 13.432554 2.671030 1.854788 0.285978 1.000000 -21.566000
H 11.249684 0.105268 13.549034 -6.273443 -7.449440 -3.425485 0.062500 10.783000
H 7.486089 1.606382 14.501024 3.538657 14.687340 -0.105866 0.062500 10.783000
O 7.450520 1.589542 14.177966 2.984373 0.414433 0.502799 1.000000 -21.566000
H 7.247521 1.816914 14.090605 -11.316373 5.266379 10.281431 0.062500 10.783000
H 8.453694 3.416680 13.088359 2.513683 -4.699105 -12.996088 0.062500 10.783000
O 8.186055 3.258953 13.128857 -1.830757 3.273399 1.666982 1.000000 -21.566000
H 8.215620 2.969714 12.990520 14.800639 6.303407 2.414942 0.062500 10.783000
H 6.280836 2.135261 12.568214 4.270761 14.779730 4.960159 0.062500 10.783000
O 6.538250 1.941492 12.485235 1.926878 -2.371158 -0.480221 1.000000 -21.566000
H 6.700113 2.058172 12.235431 3.170573 -9.036937 -3.254805 0.062500 10.783000
H 9.944515 1.146044 10.828285 -21.786049 3.862703 6.863149 0.062500 10.783000
O 9.668715 1.037001 10.693173 -1.423534 0.346192 -0.670812 1.000000 -21.566000
H 9.491805 1.301832 10.657832 1.484938 6.557223 13.306470 0.062500 10.783000
H 13.262701 4.054391 0.001051 -12.744671 11.104486 -17.217296 0.062500 10.783000
O 13.377875 4.342334 0.134463 3.149397 -1.842234 -3.054248 1.000000 -21.566000
H 13.239477 4.385457 0.431214 0.982671 -7.018524 1.445745 0.062500 10.783000
H 14.614248 2.289802 11.231865 3.582830 12.325741 -0.740126 0.062500 10.783000
O 14.346291 2.454071 11.259143 0.712425 1.497003 -4.106580 1.000000 -21.566000
H 14.437131 2.762209 11.230446 8.844691 3.311423 6.241705 0.062500 10.783000
H 2.556718 8.311424 10.489197 8.279735 2.537441 -2.274278 0.062500 10.783000
O 2.457621 8.522717 10.261939 0.854144 -1.860637 3.200034 1.000000 -21.566000
H 2.158968 8.637965 10.327395 5.863939 8.259673 9.606606 0.062500 10.783000
H 12.598534 3.696299 13.817494 -8.420511 -10.657200 -2.674546 0.062500 10.783000
O 12.426648 3.479070 13.948138 1.231827 -0.371643 -0.392853 1.000000 -21.566000
H 12.302480 3.602888 14.218883 4.508499 -4.915742 7.028854 0.062500 10.783000
H 2.707644 7.949791 11.254941 -5.971704 -9.150254 0.902245 0.062500 10.783000
O 2.643352 7.907679 10.940049 -3.779268 -2.438742 1.280779 1.000000 -21.566000
H 2.339110 7.808147 10.948944 -9.260531 13.773494 -0.342699 0.062500 10.783000
H 4.787116 13.030520 13.106439 -1.158139 2.598898 -10.672817 0.062500 10.783000
O 4.942072 13.299775 13.191289 -1.884949 -3.407652 -0.246156 1.000000 -21.566000
H 4.843944 13.367523 13.479976 -1.631063 -2.133775 15.893161 0.062500 10.783000
H 4.175735 1.117277 0.735023 -8.426275 2.325106 7.177626 0.062500 10.783000
O 4.470627 1.041358 0.836423 0.982318 0.968064 -1.670388 1.000000 -21.566000
H 4.432241 1.091835 1.153546 4.771346 6.834920 -2.414626 0.062500 10.783000
H 12.094627 2.499179 13.311179 25.035097 9.116871 14.219897 0.062500 10.783000
O 12.208858 2.266832 13.133382 -2.819162 -0.850545 -0.234190 1.000000 -21.566000
H 12.520804 2.246969 13.201706 3.356659 13.809932 0.328500 0.062500 10.783000
H 13.304049 2.520778 11.256113 -6.478194 -7.734831 -9.230416 0.062500 10.783000
O 13.227851 2.772215 11.451192 -1.016253 0.034924 2.896521 1.000000 -21.566000
H 13.085991 2.657099 11.716114 2.057460 -0.333847 3.064329 0.062500 10.783000
H 4.028913 5.281827 1.990242 6.018330 -7.187853 12.834674 0.062500 10.783000
O 4.342961 5.323897 2.040403 -0.178084 0.406080 3.988185 1.000000 -21.566000
H 4.448753 5.110101 2.245846 -13.506912 -2.517130 1.130325 0.062500 10.783000
H 7.752430 0.422924 14.548356 -6.145242 -15.537915 6.688826 0.062500 10.783000
O 8.034315 0.435633 14.378126 -2.095526 -2.349851 0.455653 1.000000 -21.566000
H 8.272185 0.422237 14.589679 6.755236 -6.376701 2.723725 0.062500 10.783000
H 10.655569 1.282631 13.661188 -3.858528 1.367488 5.795408 0.062500 10.783000
O 10.433664 1.487255 13.578453 -0.787116 -2.960451 1.071101 1.000000 -21.566000
H 10.543589 1.651805 13.317787 1.632489 -4.128122 -10.775184 0.062500 10.783000
H 5.783216 11.562075 2.053307 -7.092840 5.910498 0.498368 0.062500 10.783000
O 6.009244 11.744251 1.896065 3.089313 -2.163751 0.529411 1.000000 -21.566000
H 5.871266 12.005029 1.774621 3.539448 -11.256865 6.881714 0.062500 10.783000
H 9.637881 5.914252 14.382976 -1.226081 -2.123919 11.224115 0.062500 10.783000
O 9.875456 6.043852 14.205189 2.064596 1.312363 -3.220510 1.000000 -21.566000
H 10.129864 5.856785 14.267831 -0.947784 1.351886 -3.004733 0.062500 10.783000
H 9.217371 0.495925 14.724071 14.093127 0.749168 5.425344 0.062500 10.783000
O 9.172902 0.600170 0.282107 -2.967454 2.188210 0.908715 1.000000 -21.566000
H 9.250439 0.362776 0.490772 -6.868424 -2.480909 -0.827476 0.062500 10.783000
H 12.614074 8.946550 12.565478 5.798372 -4.087155 12.056928 0.062500 10.783000
O 12.304524 8.891657 12.633312 0.180080 2.994240 -1.878312 1.000000 -21.566000
H 12.198423 9.065524 12.878483 3.746394 8.750410 0.477895 0.062500 10.783000
H 6.817163 3.782992 13.676870 10.994415 4.526487 -9.699350 0.062500 10.783000
O 6.753445 4.084710 13.634227 -1.974210 -0.430190 1.420152 1.000000 -21.566000
H 7.014938 4.230320 13.518879 14.831452 9.041285 3.380023 0.062500 10.783000
H 13.698843 2.869751 3.946205 2.495346 0.200752 -13.052511 0.062500 10.783000
O 13.740548 3.012644 4.229989 -1.881066 -0.889960 -2.945142 1.000000 -21.566000
H 13.462384 3.047125 4.390646 -3.423101 -11.129722 -2.926597 0.062500 10.783000
H 1.038756 5.769002 1.218148 -1.218951 6.662007 -8.302574 0.062500 10.783000
O 1.175546 5.499718 1.328274 -1.477913 1.794986 -0.769345 1.000000 -21.566000
H 1.322581 5.382796 1.068861 4.871504 1.173997 -5.111988 0.062500 10.783000
H 6.060660 7.606526 11.465232 -12.516589 4.907048 -1.831380 0.062500 10.783000
O 5.965613 7.305940 11.500072 -5.128834 1.337989 -0.116051 1.000000 -21.566000
H 5.738698 7.312197 11.719493 -2.117380 -5.087721 7.322702 0.062500 10.783000
H 9.152888 3.630863 13.558144 -1.694768 -6.551024 -3.986108 0.062500 10.783000
O 9.065191 3.534205 13.836487 -1.265936 -3.219682 -0.544779 1.000000 -21.566000
H 9.283796 3.608438 14.045114 -14.142150 7.760191 6.648773 0.062500 10.783000
H 5.204925 3.078825 13.037759 -1.443053 -8.053547 2.160837 0.062500 10.783000
O 5.175563 2.831502 12.841112 -2.504644 1.466377 -2.679644 1.000000 -21.566000
H 4.873210 2.709958 12.865046 -2.115922 -6.208428 2.883034 0.062500 10.783000
H 1.693319 6.293484 12.599888 6.839853 -1.608716 1.554755 0.062500 10.783000
O 1.763524 5.993499 12.707284 -0.094608 1.159900 -0.229266 1.000000 -21.566000
H 1.730275 5.809512 12.437438 -15.244115 -0.789131 -3.141557 0.062500 10.783000
H 6.403762 4.312829 2.054871 -7.158426 -0.642670 6.195022 0.062500 10.783000
O 6.478541 4.274230 2.377862 0.188791 4.507893 -0.381196 1.000000 -21.566000
H 6.344293 4.454698 2.598466 -10.415778 5.224740 0.064668 0.062500 10.783000
H 8.537561 3.673832 0.368481 -0.697147 -2.207453 -0.992414 0.062500 10.783000
O 8.627515 3.381327 0.237404 0.399350 -3.031006 -1.501046 1.000000 -21.566000
H 8.952689 3.393057 0.237239 10.104728 5.411916 -3.686283 0.062500 10.783000
H 6.695090 6.523155 0.470333 2.465714 -2.611431 4.545324 0.062500 10.783000
O 6.859707 6.327077 0.647415 -2.927069 -1.803470 1.408803 1.000000 -21.566000
H 7.175043 6.399666 0.622544 -8.824617 4.693346 -0.281281 0.062500 10.783000
H 7.108409 3.041461 11.432044 7.315929 3.604900 -14.494292 0.062500 10.783000
O 7.396443 2.903869 11.463473 1.076085 -1.231116 -0.185580 1.000000 -21.566000
H 7.503869 2.942922 11.762903 2.204204 24.505404 -3.748895 0.062500 10.783000
H 11.818213 8.087586 12.789159 -9.375120 2.936750 3.925806 0.062500 10.783000
O 11.731986 8.295424 12.544912 -1.409795 1.330651 -2.085187 1.000000 -21.566000
H 11.969547 8.505323 12.478502 -0.944487 -1.291920 1.468354 0.062500 10.783000
H 7.999945 13.659507 10.969145 1.142946 -14.925834 -8.996002 0.062500 10.783000
O 7.830030 13.433376 11.088667 1.917208 -3.695039 1.687708 1.000000 -21.566000
H 7.877998 13.138004 10.963191 -1.964075 -2.287210 6.753460 0.062500 10.783000
H 0.724094 9.387269 1.465245 -9.478186 0.190050 -12.675507 0.062500 10.783000
O 0.536324 9.656742 1.420072 1.045483 1.624677 -1.733008 1.000000 -21.566000
H 0.376212 9.625357 1.149911 0.527013 -7.037939 -7.991568 0.062500 10.783000
H 12.102623 8.075560 3.447172 -3.743427 -5.973073 10.610815 0.062500 10.783000
O 11.962301 8.372009 3.421277 -1.280337 0.593230 -2.789064 1.000000 -21.566000
H 12.195720 8.566829 3.301041 5.714152 -3.582381 -10.014634 0.062500 10.783000
H 14.439893 9.487678 0.788639 -8.854592 -7.204076 -1.399659 0.062500 10.783000
O 14.138982 9.442878 0.907812 1.666202 2.198575 1.698096 1.000000 -21.566000
H 13.926628 9.381529 0.672990 -12.709137 3.310164 10.623387 0.062500 10.783000
H 13.411116 10.629331 11.860381 2.722905 -10.414747 4.848385 0.062500 10.783000
O 13.180612 10.752385 11.668498 0.959084 1.287453 -4.114302 1.000000 -21.566000
H 13.259506 11.037820 11.531968 -8.455947 6.787677 10.953188 0.062500 10.783000
H 13.899495 9.163033 1.256540 3.050117 -6.890576 7.452075 0.062500 10.783000
O 13.660529 8.966013 1.319896 1.024382 0.185769 0.282752 1.000000 -21.566000
H 13.496596 9.095004 1.565721 -17.055734 6.478655 -2.475342 0.062500 10.783000
H 14.555553 10.076593 11.981078 0.859570 -2.578968 6.572802 0.062500 10.783000
O 14.438461 10.018638 12.269793 -3.004043 0.511174 2.742886 1.000000 -21.566000
H 14.198206 10.203784 12.356569 -1.899763 -0.843426 3.824340 0.062500 10.783000
H 2.332282 11.891193 13.122257 -3.518895 0.083428 -8.792762 0.062500 10.783000
O 2.618019 11.822348 13.021492 0.990240 0.984241 -0.276992 1.000000 -21.566000
H 2.583135 11.551816 12.848417 -9.460199 0.630980 -6.062827 0.062500 10.783000
H 1.786687 5.041459 1.889276 -9.399728 -6.348226 2.410028 0.062500 10.783000
O 2.089725 4.998758 1.973985 0.415313 5.078816 1.941871 1.000000 -21.566000
H 2.095378 4.990539 2.294561 5.874618 0.611425 3.175080 0.062500 10.783000
H 7.634655 8.717305 12.440184 7.581206 7.177874 -3.019459 0.062500 10.783000
O 7.626835 8.972563 12.249200 -1.606886 2.754803 0.621679 1.000000 -21.566000
H 7.801958 8.872818 11.994470 3.510741 -8.791338 -15.421655 0.062500 10.783000
H 6.518227 2.954069 1.655061 -4.762436 -5.718960 -2.984957 0.062500 10.783000
O 6.698356 3.227980 1.616786 -3.349138 -0.496867 4.271075 1.000000 -21.566000
H 6.689167 3.363859 1.318061 20.630389 3.171369 -0.288885 0.062500 10.783000
H 2.711704 7.079788 3.527586 8.300546 10.042442 4.248876 0.062500 10.783000
O 2.664122 7.106422 3.208025 -0.764682 2.666880 1.104065 1.000000 -21.566000
H 2.735248 6.827795 3.060136 -6.229929 -6.408619 -7.104659 0.062500 10.783000
H 2.648770 7.842085 13.068168 -4.617570 -8.298807 -5.655036 0.062500 10.783000
O 2.456221 7.604086 13.014946 -2.887947 3.400220 -1.034585 1.000000 -21.566000
H 2.614541 7.415464 12.809648 1.338018 -0.381187 -0.803110 0.062500 10.783000
H 3.082558 2.699261 12.479454 -3.508297 -4.026250 -8.390923 0.062500 10.783000
O 2.850501 2.926120 12.447493 -2.387686 -0.776943 -2.663719 1.000000 -21.566000
H 2.760815 2.971200 12.752094 3.289938 -4.463278 6.164762 0.062500 10.783000
H 8.500117 6.135224 13.944304 -0.565983 5.429203 -7.127880 0.062500 10.783000
O 8.360210 5.845484 13.898917 -2.392608 0.334149 0.713346 1.000000 -21.566000
H 8.385461 5.779216 13.589618 -2.753187 1.488589 0.395418 0.062500 10.783000
H 3.731528 1.398260 13.077041 0.401048 -3.888127 -0.371945 0.062500 10.783000
O 3.730519 1.295049 13.377650 -2.898108 -0.090606 0.437237 1.000000 -21.566000
H 3.424246 1.368786 13.460807 -1.579359 -7.017726 5.015246 0.062500 10.783000
H 4.395747 12.567870 1.389583 -7.101124 -5.794685 -5.534034 0.062500 10.783000
O 4.380733 12.562872 1.715468 0.432610 -3.952118 0.481091 1.000000 -21.566000
H 4.270305 12.835720 1.819398 -2.824777 -1.453365 9.283349 0.062500 10.783000
H 13.456777 8.107799 14.527935 15.998879 -0.219607 9.080836 0.062500 10.783000
O 13.281653 7.880419 14.703357 -0.427690 0.419130 1.344583 1.000000 -21.566000
H 12.993479 7.861834 14.572693 4.155872 8.152925 -6.793108 0.062500 10.783000
H 10.085122 4.660711 10.609340 -1.725168 -14.613021 7.814318 0.062500 10.783000
O 10.234297 4.921157 10.725544 1.375386 -2.085995 -0.106088 1.000000 -21.566000
H 10.221776 5.107600 10.469130 -8.704863 -5.082643 -8.502537 0.062500 10.783000
H 1.785522 2.540758 13.833030 -9.250190 5.063633 -1.417852 0.062500 10.783000
O 1.661122 2.497273 13.539005 -0.273610 -0.209416 0.348079 1.000000 -21.566000
H 1.378008 2.634116 13.563115 0.298317 1.303947 0.368434 0.062500 10.783000
H 2.750464 7.631284 1.580285 -1.643341 8.441851 -15.533322 0.062500 10.783000
O 2.956178 7.412820 1.681788 1.709121 -0.502340 -1.420275 1.000000 -21.566000
H 2.936671 7.454412 2.001694 19.792431 3.077149 1.098114 0.062500 10.783000
H 5.679746 3.577111 1.320696 2.620988 -3.345004 -4.291587 0.062500 10.783000
O 5.695821 3.751412 1.585881 -2.778207 -0.574990 5.024558 1.000000 -21.566000
H 5.871980 3.637926 1.817577 -3.707258 7.809936 0.624710 0.062500 10.783000
H 2.531828 4.011425 2.888351 -12.041405 -1.724098 -0.330186 0.062500 10.783000
O 2.544980 4.310638 2.975932 -0.981492 -2.133370 4.576951 1.000000 -21.566000
H 2.262599 4.430576 2.891963 0.243700 1.861544 -2.809455 0.062500 10.783000
H 5.573339 4.665139 1.009471 -8.185060 -7.050495 -4.059982 0.062500 10.783000
O 5.505648 4.678048 0.695173 -1.319146 1.831144 0.817797 1.000000 -21.566000
H 5.300573 4.918671 0.616791 -1.838596 -5.496516 21.225641 0.062500 10.783000
H 5.325758 6.080845 13.870953 3.923921 -9.674356 8.832923 0.062500 10.783000
O 5.095063 6.314574 13.836780 1.597875 -1.941415 1.188623 1.000000 -21.566000
H 4.886948 6.260286 13.608879 11.494950 7.217335 9.310856 0.062500 10.783000
H 7.225324 0.925231 12.750481 7.583663 0.847130 -9.973716 0.062500 10.783000
O 7.282396 0.591510 12.740871 -0.097881 -1.042333 3.121341 1.000000 -21.566000
H 7.063714 0.410941 12.867419 10.001544 0.811243 -1.994870 0.062500 10.783000
H 11.179990 14.378441 1.194817 -7.527441 -9.321259 -6.873303 0.062500 10.783000
O 10.939718 14.188437 1.091623 0.032752 -0.323383 1.937438 1.000000 -21.566000
H 10.735512 14.385793 0.926252 -14.701841 -9.344294 -11.148490 0.062500 10.783000
H 11.227582 3.236187 11.056001 10.478138 -3.936492 -5.917314 0.062500 10.783000
O 11.478377 3.419428 11.139120 3.251630 -0.291819 0.609677 1.000000 -21.566000
H 11.766257 3.278119 11.177709 -8.665929 -5.266262 5.380500 0.062500 10.783000
H 3.941762 2.117967 0.473771 13.526775 -0.452634 8.872581 0.062500 10.783000
O 3.672990 1.981405 0.346010 4.361442 -0.504660 2.279979 1.000000 -21.566000
H 3.728728 1.652230 0.345646 -5.817448 0.964460 0.043806 0.062500 10.783000
H 9.405228 4.422759 0.015329 -10.294787 17.871956 0.409995 0.062500 10.783000
O 9.135495 4.528140 0.145619 1.567607 0.750612 2.609542 1.000000 -21.566000
H 9.025171 4.762043 14.699719 9.400890 2.695588 -8.191333 0.062500 10.783000
H 12.591316 12.882290 14.710556 8.857472 -4.620179 -0.385875 0.062500 10.783000
O 12.764345 13.132513 0.087393 -0.131082 0.367740 -0.072443 1.000000 -21.566000
H 12.790162 13.056630 0.407521 -0.108994 -9.850919 0.900767 0.062500 10.783000
H 3.093021 4.870726 0.803146 -10.255706 4.973816 5.812305 0.062500 10.783000
O 3.083197 5.187798 0.745291 -0.405564 -0.008730 0.264589 1.000000 -21.566000
H 3.356633 5.344940 0.793793 -3.438516 11.654248 -1.696407 0.062500 10.783000
H 0.781577 10.200576 10.983054 -1.947547 0.938833 0.947566 0.062500 10.783000
O 0.912952 10.378136 10.743527 0.295622 0.740766 4.746161 1.000000 -21.566000
H 0.685573 10.351104 10.512884 -0.504751 -6.073784 16.047186 0.062500 10.783000
H 2.083241 8.319379 11.208857 1.738735 -11.041222 3.856206 0.062500 10.783000
O 2.053744 8.474841 11.491644 -4.380400 -0.119214 -3.880456 1.000000 -21.566000
H 2.266837 8.717779 11.500188 -5.066028 4.696114 -0.110149 0.062500 10.783000
H 14.524903 6.767821 12.858136 10.172052 -6.118410 -6.084453 0.062500 10.783000
O 14.377891 6.545490 12.686090 2.709657 0.198833 0.330463 1.000000 -21.566000
H 14.323601 6.637183 12.382232 11.277242 10.852727 -2.488490 0.062500 10.783000
H 4.286053 9.888059 0.123624 9.600176 1.188492 -1.135966 0.062500 10.783000
O 4.525324 10.048225 14.720129 -0.026403 -2.561866 -0.540608 1.000000 -21.566000
H 4.661865 10.248861 0.212659 8.017948 5.308717 6.187252 0.062500 10.783000
H 5.603706 10.493132 1.635893 -0.529786 -5.545223 -2.579798 0.062500 10.783000
O 5.597803 10.814385 1.631236 4.169941 -2.229252 2.017392 1.000000 -21.566000
H 5.772935 10.947711 1.402917 -13.960700 -0.190574 -6.041575 0.062500 10.783000
H 3.826251 4.377173 13.976358 -3.729087 3.571625 13.917573 0.062500 10.783000
O 3.724807 4.074635 13.882579 0.001102 -1.881722 1.472293 1.000000 -21.566000
H 3.703378 4.051733 13.553051 -6.413439 11.475996 -11.360201 0.062500 10.783000
H 12.247645 3.246633 3.128802 4.063525 -1.575733 -6.322026 0.062500 10.783000
O 12.453961 3.485359 3.055929 -0.621224 1.246338 -1.830295 1.000000 -21.566000
H 12.676958 3.583577 3.270205 -1.639424 -0.851575 1.924809 0.062500 10.783000
H 5.225030 4.241884 0.485165 2.787946 7.055329 2.530970 0.062500 10.783000
O 4.952471 4.082637 0.417180 0.525746 5.041969 3.797298 1.000000 -21.566000
H 4.759060 4.331761 0.406978 11.883471 11.921781 4.444138 0.062500 10.783000
H 7.086224 8.110127 8.617309 15.896707 5.322503 -3.895239 0.062500 10.783000
O 6.966923 8.383027 8.738752 -2.241552 -2.785288 -3.785034 1.000000 -21.566000
H 6.919996 8.580599 8.484254 -14.678311 -11.638168 -8.878616 0.062500 10.783000
H 9.795366 10.292171 1.563111 10.380984 -14.325199 2.885732 0.062500 10.783000
O 10.098141 10.307184 1.470131 -1.481856 2.069815 -2.835718 1.000000 -21.566000
H 10.139705 9.991973 1.460992 6.400051 -0.185665 -0.883117 0.062500 10.783000
H 7.624630 9.277135 8.984872 -0.810399 7.281229 4.504844 0.062500 10.783000
O 7.663704 9.586745 8.902685 -2.527251 -0.196663 2.003055 1.000000 -21.566000
H 7.577550 9.641963 8.597879 1.884598 12.641249 -4.276011 0.062500 10.783000
H 12.102804 12.269506 10.633056 -4.814753 2.076815 4.719061 0.062500 10.783000
O 12.331525 12.093844 10.777041 0.206895 1.239659 0.554844 1.000000 -21.566000
H 12.479135 11.958572 10.533177 6.611132 -2.464808 4.328742 0.062500 10.783000
H 10.887384 8.914485 3.047795 7.137327 2.900222 4.035821 0.062500 10.783000
O 11.042670 8.801524 3.283117 -3.233150 0.635825 2.765606 1.000000 -21.566000
H 11.305074 8.644324 3.167836 -10.612306 0.222353 -0.718769 0.062500 10.783000
H 7.994062 9.935925 14.166521 -2.322146 10.382269 -3.842356 0.062500 10.783000
O 7.776998 9.722437 14.264153 -0.229610 -1.146658 -2.425922 1.000000 -21.566000
H 7.793782 9.623303 14.562642 -10.861971 -4.771301 6.045030 0.062500 10.783000
H 10.573925 9.831620 11.704293 -2.674997 -0.173366 -3.478088 0.062500 10.783000
O 10.516260 9.531726 11.632410 -0.384118 -3.995977 -0.139887 1.000000 -21.566000
H 10.389578 9.459438 11.356663 15.458740 -16.224875 -0.211774 0.062500 10.783000
H 13.129573 10.052561 14.485591 7.386146 -0.923146 3.349384 0.062500 10.783000
O 13.163156 10.249135 0.008485 4.195615 2.075168 0.324396 1.000000 -21.566000
H 12.852653 10.345947 0.007889 -2.740023 2.936865 2.047281 0.062500 10.783000
H 14.737570 7.515098 12.968793 10.867536 0.833397 -2.930081 0.062500 10.783000
O 0.123591 7.265324 13.127767 3.667216 4.679350 -0.103853 1.000000 -21.566000
H 0.148602 7.287222 13.439220 8.534136 -7.458123 -7.416685 0.062500 10.783000
H 3.909179 6.419572 11.026990 6.909184 9.580913 6.265021 0.062500 10.783000
O 4.177679 6.520835 10.871160 2.406584 -0.444764 1.737197 1.000000 -21.566000
H 4.269436 6.814326 10.981597 -6.999738 8.258480 -10.864404 0.062500 10.783000
H 2.109229 3.402800 12.570766 -3.634060 -2.689375 -8.767789 0.062500 10.783000
O 2.099344 3.692878 12.699945 -1.072866 -1.915937 0.725542 1.000000 -21.566000
H 1.862279 3.622330 12.908870 11.795118 5.357000 2.887787 0.062500 10.783000
H 1.944438 4.591767 12.564235 10.532542 0.246721 -0.259098 0.062500 10.783000
O 2.064025 4.804055 12.339954 1.850142 1.066861 -2.858917 1.000000 -21.566000
H 1.890394 5.083003 12.335792 9.109085 19.253151 1.065051 0.062500 10.783000
H 12.531818 10.386075 13.331053 -4.974166 9.746338 -4.888779 0.062500 10.783000
O 12.725092 10.477243 13.568939 -0.673616 -1.302806 -4.119869 1.000000 -21.566000
H 12.560610 10.686188 13.759626 5.546286 6.076955 1.706409 0.062500 10.783000
H 4.589110 8.789676 12.646911 1.330470 -8.945500 -4.224275 0.062500 10.783000
O 4.898423 8.749364 12.582291 0.945537 -1.799547 1.441880 1.000000 -21.566000
H 5.106362 8.985658 12.673331 2.003871 -6.616798 4.880331 0.062500 10.783000
H 1.911746 9.137783 9.466930 -0.921802 8.872965 2.746009 0.062500 10.783000
O 1.940332 8.862141 9.301907 0.668823 2.352701 -1.923476 1.000000 -21.566000
H 1.685774 8.663265 9.361843 8.229201 2.571518 4.273587 0.062500 10.783000
H 3.234048 10.376657 0.956357 -10.775128 12.350143 -3.445177 0.062500 10.783000
O 3.262716 10.331951 0.634475 -2.841490 2.001057 -1.182259 1.000000 -21.566000
H 3.002081 10.221808 0.503573 0.104263 -2.220392 12.481703 0.062500 10.783000
H 6.135822 14.551435 2.511164 5.306313 18.090476 -5.712986 0.062500 10.783000
O 5.831653 14.643744 2.582006 -1.140100 -0.117277 -0.934920 1.000000 -21.566000
H 5.861581 0.090766 2.835615 -10.845635 -3.294894 0.312758 0.062500 10.783000
H 7.448740 13.475501 7.306950 -1.108959 4.310034 -11.599310 0.062500 10.783000
O 7.289530 13.253469 7.503641 -3.507219 -1.816020 -4.933115 1.000000 -21.566000
H 7.424214 13.288265 7.790325 -5.701632 4.184152 -2.268986 0.062500 10.783000
H 9.872785 9.171854 8.298454 -7.787482 -2.413041 -0.177871 0.062500 10.783000
O 9.886528 9.455196 8.123876 -0.358808 0.920532 0.436939 1.000000 -21.566000
H 9.740081 9.444869 7.847355 -1.281731 8.317991 15.525837 0.062500 10.783000
H 10.376566 7.405198 12.331114 8.569141 -8.871747 -1.043395 0.062500 10.783000
O 10.359121 7.595684 12.080835 0.180023 1.531232 -0.825051 1.000000 -21.566000
H 10.649504 7.587873 11.951831 -7.742756 -2.742956 -1.987669 0.062500 10.783000
H 6.660675 10.717687 11.415245 1.623976 7.149390 1.062192 0.062500 10.783000
O 6.786748 10.889101 11.166152 -2.481670 -0.105507 2.775275 1.000000 -21.566000
H 6.816061 11.191216 11.276053 -7.605412 9.327031 -13.829625 0.062500 10.783000
H 14.241089 0.157263 10.186855 -0.931196 3.677442 1.408770 0.062500 10.783000
O 14.217232 0.175228 9.855935 0.646805 3.963436 -0.173889 1.000000 -21.566000
H 14.465078 0.077222 9.685030 -9.077121 8.377003 -5.496265 0.062500 10.783000
H 2.824691 7.363874 13.972249 -1.891196 6.743837 -12.698180 0.062500 10.783000
O 3.148027 7.356097 13.954707 0.026354 1.784652 -2.001120 1.000000 -21.566000
H 3.289893 7.549150 14.167279 -9.677515 -3.869315 10.824188 0.062500 10.783000
H 5.730220 6.220802 14.734731 -3.311448 -1.530457 -5.441531 0.062500 10.783000
O 5.593467 5.975933 0.172908 -0.477393 0.859103 -1.505067 1.000000 -21.566000
H 5.640293 6.062196 0.499276 -5.654237 -20.047998 8.919090 0.062500 10.783000
H 13.170611 13.040303 8.212045 -11.092647 -2.965425 15.201623 0.062500 10.783000
O 12.920697 13.194282 8.105151 -1.947127 2.971477 0.948517 1.000000 -21.566000
H 12.726096 13.301873 8.332154 1.176579 0.732825 14.972756 0.062500 10.783000
H 11.223511 5.461767 12.475302 6.242552 5.265135 -5.648919 0.062500 10.783000
O 11.413182 5.577340 12.694623 1.208274 0.259706 0.352439 1.000000 -21.566000
H 11.414597 5.438868 12.970591 -1.691875 -8.746920 -1.369319 0.062500 10.783000
H 5.670123 4.494011 13.339850 -13.420226 -4.870360 3.440245 0.062500 10.783000
O 5.703995 4.451690 13.660648 1.304703 1.904656 1.170127 1.000000 -21.566000
H 5.911054 4.206618 13.692951 -3.471758 6.494240 10.073019 0.062500 10.783000
H 8.597810 11.346162 12.556542 1.835223 -9.412444 -13.752423 0.062500 10.783000
O 8.615955 11.080292 12.746766 -1.059675 -3.585648 -0.037557 1.000000 -21.566000
H 8.392972 10.870960 12.691512 6.221601 3.552137 9.566827 0.062500 10.783000
H 5.592997 9.053642 1.597820 -4.436062 3.745024 1.084248 0.062500 10.783000
O 5.383402 9.063217 1.346039 2.144600 0.112494 -2.262872 1.000000 -21.566000
H 5.072671 9.021529 1.452270 3.135122 -8.459846 8.531225 0.062500 10.783000
H 11.487076 6.213188 9.841771 -4.175553 5.350130 11.005437 0.062500 10.783000
O 11.523994 6.077463 10.125966 0.208135 -0.138530 -0.076075 1.000000 -21.566000
H 11.719353 6.244537 10.320242 9.497452 4.240795 3.932340 0.062500 10.783000
H 2.583700 14.153999 3.017119 2.810734 -2.601761 -9.380962 0.062500 10.783000
O 2.292178 14.018637 3.059993 3.882378 0.010836 -0.285627 1.000000 -21.566000
H 2.154750 13.964317 2.777802 0.255689 -0.642605 0.611378 0.062500 10.783000
H 9.583076 7.355783 8.704752 -10.078136 -5.832427 -8.453414 0.062500 10.783000
O 9.908928 7.361697 8.722491 -0.604117 -2.845678 4.108789 1.000000 -21.566000
H 9.963909 7.606983 8.935818 2.851554 8.340844 -11.507408 0.062500 10.783000
H 12.657603 14.213562 11.660094 7.857073 -3.225205 11.917217 0.062500 10.783000
O 12.676815 14.010454 11.912163 2.626127 -0.189826 1.007133 1.000000 -21.566000
H 12.901183 13.782292 11.834180 17.596047 2.341623 -7.805575 0.062500 10.783000
H 9.785457 10.614841 5.299119 -0.041666 -4.623643 4.526766 0.062500 10.783000
O 9.624680 10.536150 5.035392 0.279020 -3.209748 -0.766142 1.000000 -21.566000
H 9.520572 10.230569 5.035053 -8.187985 1.891409 1.861462 0.062500 10.783000
H 11.404191 0.014979 11.758250 1.719300 2.314508 0.047264 0.062500 10.783000
O 11.340834 14.442785 11.695913 -2.226995 0.490073 -0.835403 1.000000 -21.566000
H 11.142124 14.339989 11.905656 5.469368 -4.139273 -12.542985 0.062500 10.783000
H 8.689453 11.227536 4.948569 8.640383 -2.138434 4.908198 0.062500 10.783000
O 8.796666 10.945867 5.070368 -4.614338 -4.389321 1.251766 1.000000 -21.566000
H 9.084945 10.896422 4.939389 -9.605541 0.379428 -12.384667 0.062500 10.783000
H 7.225267 11.224869 1.507175 -4.928760 -0.751212 -5.622997 0.062500 10.783000
O 7.242452 11.030685 1.252522 0.943833 -0.049809 1.036242 1.000000 -21.566000
H 6.990858 10.831572 1.220594 -8.392976 -9.020828 -14.548015 0.062500 10.783000
H 7.621273 4.121408 0.104351 4.595627 -1.945644 -6.623244 0.062500 10.783000
O 7.634028 4.101464 0.430880 2.446003 -0.261186 0.814368 1.000000 -21.566000
H 7.939236 4.169126 0.524373 -19.419427 13.689434 -2.872902 0.062500 10.783000
H 2.187157 9.843302 11.814704 1.373768 -2.100990 -15.409579 0.062500 10.783000
O 2.494463 9.933188 11.862140 3.360071 0.090622 -0.124713 1.000000 -21.566000
H 2.530091 10.240920 11.761163 -7.885813 4.920000 -8.160732 0.062500 10.783000
H 12.972283 0.108700 13.071501 -1.073224 -10.405194 -8.913885 0.062500 10.783000
O 12.977073 0.227994 13.373297 -0.245379 -1.105817 0.450257 1.000000 -21.566000
H 13.215794 0.428902 13.453430 -1.940333 -7.465308 16.993840 0.062500 10.783000
H 0.575937 11.196900 10.081053 3.790769 -7.128583 0.530452 0.062500 10.783000
O 0.266514 11.142631 10.107631 2.866731 -3.042335 0.214715 1.000000 -21.566000
H 0.214469 10.837518 10.052199 2.612122 1.669798 -17.715585 0.062500 10.783000
H 4.111421 9.611407 2.178011 -15.614230 21.590121 11.941576 0.062500 10.783000
O 4.021926 9.300672 2.150179 -0.491914 1.466553 3.092453 1.000000 -21.566000
H 3.799600 9.317796 1.913844 -12.274385 8.226719 -6.602823 0.062500 10.783000
H 0.680931 13.416211 14.466974 -3.298406 2.187218 4.437402 0.062500 10.783000
O 0.618987 13.162344 14.658018 -4.915173 0.385695 0.290107 1.000000 -21.566000
H 0.318090 13.086644 14.639433 2.650760 1.877681 -7.026166 0.062500 10.783000
H 4.729505 8.521393 3.893829 3.967766 8.647067 -4.852164 0.062500 10.783000
O 4.431188 8.419810 3.847447 0.585476 -1.385338 1.136883 1.000000 -21.566000
H 4.450713 8.148670 3.664417 -2.818858 2.116726 -0.716979 0.062500 10.783000
H 0.871185 10.128077 11.874690 13.110567 -16.088896 3.316865 0.062500 10.783000
O 1.048800 10.075155 12.139810 -2.144800 -6.949286 2.500648 1.000000 -21.566000
H 0.862931 10.141080 12.400772 -4.535647 9.094243 6.068979 0.062500 10.783000
H 10.262222 13.613867 1.692895 0.710618 7.048602 3.557799 0.062500 10.783000
O 10.352410 13.924409 1.661173 -0.842340 2.252101 3.047963 1.000000 -21.566000
H 10.560919 13.952473 1.429374 1.066984 4.185668 3.584898 0.062500 10.783000
H 7.490635 6.834056 13.990823 13.467733 -4.688266 6.998830 0.062500 10.783000
O 7.268721 6.867892 14.221709 -0.261517 3.884610 3.287642 1.000000 -21.566000
H 7.165561 7.167585 14.202512 -17.625775 -15.245819 -4.072610 0.062500 10.783000
H 13.368794 11.373857 12.611258 8.237729 0.264853 5.365609 0.062500 10.783000
O 13.616090 11.536260 12.465628 3.554608 0.755349 1.619017 1.000000 -21.566000
H 13.509335 11.645434 12.178978 -10.626236 -17.050214 11.148415 0.062500 10.783000
H 13.416122 14.497176 1.104192 7.942621 1.277313 9.732687 0.062500 10.783000
O 13.678666 14.324198 1.025944 -1.203788 1.433084 0.113876 1.000000 -21.566000
H 13.780007 14.456989 0.740168 -6.012778 -1.779122 -0.409859 0.062500 10.783000
H 9.474162 0.583521 7.072617 -15.075175 -8.150407 -0.687024 0.062500 10.783000
O 9.311228 0.844173 6.941880 1.319567 4.386770 1.462911 1.000000 -21.566000
H 9.484125 1.055605 6.790411 -1.596271 5.605318 -4.342932 0.062500 10.783000
H 13.354104 6.328208 10.455945 -8.774207 1.781854 -9.875152 0.062500 10.783000
O 13.316776 6.412359 10.764120 0.683423 3.075231 0.862255 1.000000 -21.566000
H 13.204639 6.165294 10.926736 2.814043 -0.776412 -11.019907 0.062500 10.783000
H 12.417032 2.601234 3.562950 12.140933 1.667087 -5.638068 0.062500 10.783000
O 12.629658 2.428484 3.714502 -1.065527 -2.481866 -0.330880 1.000000 -21.566000
H 12.692494 2.638195 3.955197 3.536699 0.855801 17.629266 0.062500 10.783000
H 11.197828 11.405658 10.806248 -1.029596 4.394875 -0.666971 0.062500 10.783000
O 11.242496 11.233052 11.081797 -0.498380 6.071857 -1.115223 1.000000 -21.566000
H 11.103930 11.383788 11.321376 -6.848578 -15.289595 5.681444 0.062500 10.783000
H 0.406688 11.814832 13.563507 -0.905665 3.372014 0.464125 0.062500 10.783000
O 0.512441 11.579363 13.375240 2.849668 1.046687 1.551008 1.000000 -21.566000
H 0.496949 11.325226 13.580073 -5.511257 -15.880348 3.288156 0.062500 10.783000
H 0.655850 13.059142 12.621749 14.846694 -12.442367 -5.041233 0.062500 10.783000
O 0.560359 12.795915 12.790463 2.414201 1.267877 -2.076258 1.000000 -21.566000
H 0.649302 12.554756 12.619308 3.460527 4.336842 -9.336300 0.062500 10.783000
H 0.232275 11.018010 4.270626 -20.322336 -21.744705 -1.922699 0.062500 10.783000
O 0.373999 10.731455 4.296620 -0.158463 3.738213 0.397162 1.000000 -21.566000
H 0.375864 10.612082 3.994773 -17.091239 -15.959545 8.075685 0.062500 10.783000
H 1.210166 10.424356 2.146962 1.979194 -1.448450 10.496707 0.062500 10.783000
O 1.487329 10.507548 2.282270 -1.506316 -2.928579 -2.454065 1.000000 -21.566000
H 1.595400 10.767407 2.124995 3.547065 4.533947 0.829912 0.062500 10.783000
H 3.472920 12.900003 11.473805 0.309571 -2.594408 12.320059 0.062500 10.783000
O 3.460393 12.728173 11.205428 1.985056 -0.100090 -0.146395 1.000000 -21.566000
H 3.714990 12.820734 11.024824 10.224828 -8.523079 7.391233 0.062500 10.783000
H 14.405602 11.135209 3.097340 -8.473952 -4.449896 -0.872753 0.062500 10.783000
O 14.523532 11.178328 3.396596 -1.505981 0.960552 -2.165757 1.000000 -21.566000
H 0.088715 11.270572 3.332623 10.534835 -2.805481 7.385691 0.062500 10.783000
H 7.392228 12.008045 11.264860 4.370464 0.150918 -1.804124 0.062500 10.783000
O 7.524690 11.723904 11.241238 -0.356757 0.617073 -3.799915 1.000000 -21.566000
H 7.412604 11.601190 10.969942 -2.581952 10.607092 -1.223011 0.062500 10.783000
H 1.152411 7.875887 2.620613 8.004463 14.950418 -0.499474 0.062500 10.783000
O 1.016386 7.842514 2.899383 2.601503 3.457264 -2.776566 1.000000 -21.566000
H 1.209791 7.953216 3.140083 -5.305063 8.668551 -0.271062 0.062500 10.783000
H 8.557099 11.262261 0.168913 1.704345 -0.987365 3.090876 0.062500 10.783000
O 8.245040 11.212412 0.133384 3.152713 3.857066 -0.363926 1.000000 -21.566000
H 8.112295 11.048053 0.374256 -4.015770 -1.456638 0.854405 0.062500 10.783000
H 3.107678 14.535013 13.221552 -4.145362 2.701141 11.725645 0.062500 10.783000
O 3.317646 14.715152 13.062248 0.622722 -0.177435 -2.774876 1.000000 -21.566000
H 3.421717 14.558459 12.796275 -0.502718 -1.794201 3.321819 0.062500 10.783000
H 1.973612 12.339338 9.343775 -21.607404 2.371729 0.119195 0.062500 10.783000
O 1.761403 12.107977 9.373798 1.738671 -0.427338 0.196561 1.000000 -21.566000
H 1.468602 12.199379 9.428665 0.438710 0.347013 -9.892516 0.062500 10.783000
H 14.400015 14.731975 2.193570 -7.025305 6.828544 -12.536974 0.062500 10.783000
O 14.105564 14.604202 2.236684 -2.459797 -2.769287 -1.348489 1.000000 -21.566000
H 14.010040 0.027872 2.507584 -7.060943 -11.250292 0.570073 0.062500 10.783000
H 6.733165 13.337554 2.443179 -4.851573 6.387511 2.756660 0.062500 10.783000
O 6.590062 13.557905 2.623409 1.247306 0.553715 0.075147 1.000000 -21.566000
H 6.822912 13.682957 2.804528 4.492849 1.390969 10.564123 0.062500 10.783000
H 13.084996 3.590006 13.232540 5.307731 -6.037351 0.067005 0.062500 10.783000
O 13.361041 3.608311 13.088973 2.762491 2.621246 1.040898 1.000000 -21.566000
H 13.365524 3.833490 12.878091 5.387613 0.011402 -11.408049 0.062500 10.783000
H 3.814690 10.665202 11.797116 12.350267 -0.522563 -6.262905 0.062500 10.783000
O 3.773472 10.942075 11.956647 2.360054 1.063144 0.269104 1.000000 -21.566000
H 4.015246 11.127238 11.844461 0.923482 3.800557 -10.641486 0.062500 10.783000
H 10.153124 2.795643 2.222762 2.569068 2.630296 8.521081 0.062500 10.783000
O 10.293965 2.656802 1.967631 0.938940 1.323184 2.707535 1.000000 -21.566000
H 10.104127 2.390530 1.938028 -6.776741 0.048526 -5.285703 0.062500 10.783000
H 5.190616 3.284457 13.761812 8.493751 4.057018 10.323687 0.062500 10.783000
O 5.487092 3.348670 13.886121 1.492125 1.117933 2.965367 1.000000 -21.566000
H 5.433279 3.418002 14.196609 -5.765128 -11.538490 2.000301 0.062500 10.783000
H 0.489769 2.504080 11.276900 -3.956163 -8.531601 -6.151019 0.062500 10.783000
O 0.424605 2.204808 11.187613 -0.525381 -0.127179 -2.220295 1.000000 -21.566000
H 0.667873 2.053393 11.041729 -11.946918 -2.769503 -2.071348 0.062500 10.783000
H 12.888290 3.191568 1.893118 8.514920 3.402986 -6.741780 0.062500 10.783000
O 13.016889 3.360369 1.671319 -0.370490 2.111726 -1.883249 1.000000 -21.566000
H 13.095960 3.639133 1.807829 7.979110 -8.162571 8.315764 0.062500 10.783000
H 10.660106 14.600222 5.769385 -0.263113 1.767044 -4.041438 0.062500 10.783000
O 10.532998 0.073946 5.555518 -0.937598 -1.001076 -0.199702 1.000000 -21.566000
H 10.312321 14.656438 5.394813 8.201050 5.002789 -2.894897 0.062500 10.783000
H 9.868840 11.971249 7.856982 6.179302 -0.751524 0.955061 0.062500 10.783000
O 10.135672 12.100113 7.956935 -1.424628 -4.326263 -0.053595 1.000000 -21.566000
H 10.243967 11.912426 8.197970 3.964462 6.208348 1.887103 0.062500 10.783000
H 8.155364 10.429413 0.496260 -0.490518 3.443156 0.542563 0.062500 10.783000
O 8.340108 10.155314 0.506927 2.222277 1.882166 2.474805 1.000000 -21.566000
H 8.362837 10.038671 0.804901 -1.015940 -16.030498 -3.040810 0.062500 10.783000
H 6.674152 7.740384 12.015520 7.884190 1.309481 13.309226 0.062500 10.783000
O 6.907520 7.558746 11.879868 1.471283 -0.583251 -1.229456 1.000000 -21.566000
H 7.151558 7.601311 12.072928 0.199251 15.062807 6.091018 0.062500 10.783000
H 7.630233 1.643726 7.259388 -1.181590 -6.897483 15.771084 0.062500 10.783000
O 7.329173 1.758768 7.237489 -1.699524 -2.986595 -1.232749 1.000000 -21.566000
H 7.124439 1.535914 7.128610 -3.637193 3.217462 6.360682 0.062500 10.783000
H 12.478803 4.192110 11.355534 2.062712 7.405667 -18.354709 0.062500 10.783000
O 12.346739 4.493359 11.427869 1.346577 0.845909 4.343286 1.000000 -21.566000
H 12.191448 4.433317 11.701638 -8.815569 -13.220827 -4.439512 0.062500 10.783000
H 7.252603 14.206334 4.002993 8.900284 2.786515 -2.734129 0.062500 10.783000
O 7.146426 14.285804 3.710601 -1.466085 1.031960 0.644161 1.000000 -21.566000
H 6.848186 14.386745 3.752392 4.229843 -2.319284 1.150124 0.062500 10.783000
H 9.095943 12.793440 11.902065 -8.902590 -0.457032 1.450088 0.062500 10.783000
O 9.235681 12.998163 12.100331 0.481464 -1.553525 3.513836 1.000000 -21.566000
H 9.136784 12.888216 12.395219 -1.059685 4.925413 0.705439 0.062500 10.783000
H 14.389858 2.236847 12.381741 0.046066 1.748825 2.278969 0.062500 10.783000
O 14.577712 2.017664 12.510332 3.382225 0.824660 -1.073000 1.000000 -21.566000
H 14.710766 1.817601 12.285732 3.642496 9.329650 1.004002 0.062500 10.783000
H 10.376927 4.724785 0.717291 0.674253 -6.195387 8.603815 0.062500 10.783000
O 10.155307 4.738017 0.488164 1.736413 1.485791 -1.927624 1.000000 -21.566000
H 10.007030 4.456976 0.438903 -11.525030 -9.837306 7.426427 0.062500 10.783000
H 13.415615 0.781307 2.205661 -1.774100 0.401186 5.865411 0.062500 10.783000
O 13.143773 0.635252 2.281350 1.178833 1.646809 -0.578488 1.000000 -21.566000
H 12.932981 0.661436 2.031964 4.249173 -9.839622 2.825483 0.062500 10.783000
H 1.093501 2.182671 0.039171 -0.667401 -9.205987 -0.025098 0.062500 10.783000
O 1.085419 2.190867 14.454780 0.254723 0.116735 1.303239 1.000000 -21.566000
H 1.379497 2.325759 14.396176 5.139710 -9.247271 -1.396687 0.062500 10.783000
H 7.325556 14.004235 3.272250 -1.168828 -0.450024 -9.956672 0.062500 10.783000
O 7.275228 13.870151 2.991990 1.569250 2.231229 0.860798 1.000000 -21.566000
H 7.437511 14.040752 2.782851 7.444167 -4.596877 -4.137041 0.062500 10.783000
H 0.755692 5.226951 11.229763 -7.783242 6.999952 2.486860 0.062500 10.783000
O 0.956731 5.236093 11.479366 0.294222 -1.164096 -0.074480 1.000000 -21.566000
H 0.883552 4.983547 11.651616 -3.893317 4.441725 3.915844 0.062500 10.783000
H 6.126518 12.126305 13.883411 -1.681052 -4.530123 -5.939723 0.062500 10.783000
O 6.086054 12.088203 13.575816 3.447600 -1.243789 1.169282 1.000000 -21.566000
H 5.766804 12.085374 13.549872 12.466221 0.260696 -8.723669 0.062500 10.783000
H 8.052237 10.626971 8.766474 -16.188503 -6.665363 -8.080585 0.062500 10.783000
O 8.291588 10.697598 8.550882 -2.614194 -1.763672 2.705519 1.000000 -21.566000
H 8.462563 10.429144 8.475863 0.194073 -3.905246 8.810083 0.062500 10.783000
H 6.990942 2.752017 13.347118 -1.086295 6.955837 -1.132358 0.062500 10.783000
O 7.205750 2.556735 13.482706 -1.510665 -3.394994 -1.881536 1.000000 -21.566000
H 7.458709 2.752265 13.467470 7.508823 7.813511 12.451105 0.062500 10.783000
H 1.174502 7.161515 0.518895 -0.673751 6.675757 2.026291 0.062500 10.783000
O 1.438348 6.980719 0.513540 1.261208 2.711237 -0.691223 1.000000 -21.566000
H 1.350155 6.673169 0.563506 -10.951310 0.258017 -6.168880 0.062500 10.783000
H 12.373201 2.352630 11.935975 -12.626794 2.805062 9.154025 0.062500 10.783000
O 12.468246 2.065974 11.816071 -2.266677 2.024030 0.133797 1.000000 -21.566000
H 12.277793 1.848449 11.962239 -1.164068 2.233978 9.908089 0.062500 10.783000
H 10.778699 7.885991 9.938787 -0.630105 4.788358 -7.472079 0.062500 10.783000
O 10.955253 7.848660 9.667565 0.821466 -2.339708 -1.365788 1.000000 -21.566000
H 11.113624 7.561603 9.705067 8.230304 2.018115 -5.387491 0.062500 10.783000
H 4.044063 11.428048 2.804304 -15.918765 -13.686955 11.305422 0.062500 10.783000
O 4.017102 11.576654 3.077462 -0.554352 -2.718556 -2.114603 1.000000 -21.566000
H 3.713695 11.664665 3.122119 1.220400 1.381546 1.072694 0.062500 10.783000
H 7.132577 0.553821 3.386440 3.603270 3.024931 3.317852 0.062500 10.783000
O 7.235762 0.301310 3.217136 -1.255224 1.366479 1.940900 1.000000 -21.566000
H 7.192238 0.058619 3.421247 8.920217 -8.802071 13.333635 0.062500 10.783000
H 9.087416 0.757681 2.267013 9.652561 10.514523 0.553475 0.062500 10.783000
O 8.993535 0.700024 1.960633 1.446170 0.510029 1.540760 1.000000 -21.566000
H 9.234913 0.548580 1.810749 4.704199 -3.616445 1.885849 0.062500 10.783000
H 11.831915 7.294726 5.892872 2.661079 -6.551163 1.806654 0.062500 10.783000
O 11.820752 7.034424 6.067662 -1.642817 0.344443 -3.530695 1.000000 -21.566000
H 12.101169 6.913295 6.024093 -1.395925 -6.499678 8.116585 0.062500 10.783000
H 8.962852 12.223708 12.562670 -2.234901 -1.994749 3.763457 0.062500 10.783000
O 8.990606 12.484743 12.759493 2.099498 1.044815 1.357183 1.000000 -21.566000
H 8.777545 12.463041 13.006068 -7.761645 -3.901243 -1.906419 0.062500 10.783000
H 12.373583 11.004985 0.207082 -2.209047 -6.411452 -4.900002 0.062500 10.783000
O 12.427608 10.731724 0.067277 2.980732 2.803881 -1.924784 1.000000 -21.566000
H 12.189287 10.537566 0.158411 -1.506201 -0.138821 4.642553 0.062500 10.783000
H 12.775712 1.602811 1.087975 12.012123 6.840513 -2.283637 0.062500 10.783000
O 12.964689 1.385737 1.208834 1.166738 -3.339056 -0.901383 1.000000 -21.566000
H 13.227608 1.550073 1.313294 5.864234 -4.817124 6.054006 0.062500 10.783000
H 14.223026 10.745476 5.815016 0.095458 -1.351133 3.226267 0.062500 10.783000
O 13.986154 10.800365 5.626421 -0.171427 -0.001548 2.879287 1.000000 -21.566000
H 13.933884 10.501369 5.544696 0.547987 3.642334 5.505070 0.062500 10.783000
H 9.666309 13.321615 9.428065 -10.726406 6.325900 -7.014747 0.062500 10.783000
O 9.530546 13.596609 9.534962 -0.814258 1.332234 1.133168 1.000000 -21.566000
H 9.754168 13.792751 9.678567 18.946539 5.391173 -12.199144 0.062500 10.783000
H 5.650530 12.835770 11.904574 7.076511 -7.901156 6.864415 0.062500 10.783000
O 5.912228 12.822286 12.108860 1.516220 -0.294131 2.282597 1.000000 -21.566000
H 5.906749 13.112774 12.215196 -4.940804 3.091833 -3.955415 0.062500 10.783000
H 4.963606 13.639930 14.219263 2.611654 10.716875 5.473590 0.062500 10.783000
O 4.752399 13.477370 14.030122 0.518912 -1.355141 -0.900360 1.000000 -21.566000
H 4.697628 13.211403 14.194333 16.529557 -0.066781 23.020647 0.062500 10.783000
H 8.289835 13.698514 9.041089 -5.681480 -6.444721 -5.521043 0.062500 10.783000
O 8.149453 13.512254 9.259815 1.157695 3.040348 2.761244 1.000000 -21.566000
H 7.981931 13.704758 9.455349 9.024743 -2.867524 4.815714 0.062500 10.783000
H 11.787100 3.063195 1.711408 -12.491476 15.500425 -5.595795 0.062500 10.783000
O 11.883661 3.329856 1.850507 -0.039758 0.649172 -2.714494 1.000000 -21.566000
H 12.183221 3.275399 1.957264 -1.669439 1.804531 -0.389787 0.062500 10.783000
H 7.705679 2.425199 11.368667 -7.645934 -15.134702 2.808444 0.062500 10.783000
O 7.964998 2.247523 11.342049 0.955961 -0.443742 0.476248 1.000000 -21.566000
H 7.875898 1.969511 11.478479 -16.161891 -4.200101 -7.398744 0.062500 10.783000
H 9.722172 11.961165 13.334928 -5.371311 2.292245 10.417554 0.062500 10.783000
O 9.833486 12.081893 13.053416 -1.220111 3.122211 -3.752481 1.000000 -21.566000
H 9.567985 12.209688 12.952352 2.725646 -3.702397 -2.308083 0.062500 10.783000
H 8.206343 2.219944 1.499719 -7.750727 8.127851 0.261005 0.062500 10.783000
O 8.504531 2.260474 1.425996 -2.093449 -2.447744 1.123824 1.000000 -21.566000
H 8.585948 1.965881 1.337923 -0.697438 -0.714807 0.168523 0.062500 10.783000
H 12.874156 5.139165 6.907587 5.773534 2.959583 5.036338 0.062500 10.783000
O 12.959853 4.932912 7.134917 1.212260 -4.146220 0.308701 1.000000 -21.566000
H 13.204875 5.058842 7.306231 17.999882 -8.472403 4.322084 0.062500 10.783000
H 11.003649 5.963115 4.823836 19.327190 11.121217 6.033352 0.062500 10.783000
O 11.029257 6.034293 4.509903 3.572610 -1.490725 3.592364 1.000000 -21.566000
H 11.090210 5.755892 4.340280 7.565012 -1.310573 -7.720233 0.062500 10.783000
H 8.828713 0.619694 6.107458 -2.193813 2.786840 -4.065159 0.062500 10.783000
O 8.648593 0.722197 6.356120 -1.965354 1.070250 -0.957088 1.000000 -21.566000
H 8.849177 0.840177 6.573770 -0.783982 -8.917495 20.137060 0.062500 10.783000
H 10.305749 12.271835 2.358784 -6.120383 8.703701 -0.900603 0.062500 10.783000
O 10.575964 12.114503 2.320120 0.334068 -0.587077 -0.538254 1.000000 -21.566000
H 10.828311 12.283273 2.436656 -6.196569 7.479488 5.015360 0.062500 10.783000
H 4.024386 8.848732 9.126353 10.352849 2.838080 -5.831589 0.062500 10.783000
O 4.317162 8.847922 9.222416 -0.463456 -1.698682 -0.677330 1.000000 -21.566000
H 4.480279 8.950533 8.969183 -12.271808 8.638352 3.118918 0.062500 10.783000
H 7.447824 2.091374 13.403511 -4.615129 -7.157403 2.088729 0.062500 10.783000
O 7.670067 1.858088 13.352382 -1.306859 1.137501 -2.678999 1.000000 -21.566000
H 7.955859 1.928569 13.498164 9.488469 -2.298788 11.866075 0.062500 10.783000
H 10.613189 1.101387 3.313386 -2.872465 8.062909 -5.284358 0.062500 10.783000
O 10.820086 1.141302 3.066297 1.602766 0.857089 -0.184284 1.000000 -21.566000
H 11.050631 1.354783 3.147122 -0.139997 1.988077 -2.724879 0.062500 10.783000
H 2.563905 9.341684 11.025873 -5.231487 -6.527660 5.156291 0.062500 10.783000
O 2.608881 9.125569 11.256984 -0.550028 -2.626596 1.135793 1.000000 -21.566000
H 2.553784 9.272847 11.523184 -8.550041 12.600358 -7.676527 0.062500 10.783000
H 7.709212 14.331037 9.795724 0.483761 -4.365351 9.391953 0.062500 10.783000
O 7.822340 14.032793 9.836152 -1.671580 0.885421 -1.747108 1.000000 -21.566000
H 7.919018 13.980171 10.145209 1.398047 12.996805 2.985710 0.062500 10.783000
H 4.508966 13.403885 7.720815 9.608587 -13.350255 1.574184 0.062500 10.783000
O 4.304159 13.606223 7.571500 1.233982 -0.556425 -1.133607 1.000000 -21.566000
H 4.077236 13.458319 7.406381 16.665008 6.649468 1.530453 0.062500 10.783000
H 14.450051 11.392790 11.388208 9.401114 7.451761 4.336732 0.062500 10.783000
O 14.441320 11.487131 11.690744 0.255318 0.430460 -1.171431 1.000000 -21.566000
H 14.215655 11.318590 11.866348 -2.758855 -12.815522 5.729671 0.062500 10.783000
H 10.992604 13.767503 7.897875 2.952994 2.716976 8.091501 0.062500 10.783000
O 10.774250 13.726466 8.125636 -0.490012 4.706571 -0.350405 1.000000 -21.566000
H 10.486821 13.625728 8.046148 18.190637 7.265594 12.560677 0.062500 10.783000
H 10.324186 12.860281 12.626352 2.891245 4.355653 8.615934 0.062500 10.783000
O 10.357625 12.894633 12.951107 -1.526739 -1.005361 -1.534994 1.000000 -21.566000
H 10.192638 12.658351 13.073620 -1.852819 -5.166100 9.699540 0.062500 10.783000
H 5.215618 5.263070 11.979878 -10.180056 17.014832 7.537180 0.062500 10.783000
O 5.007848 5.073465 12.135121 -1.985621 0.122252 0.699343 1.000000 -21.566000
H 4.914849 4.852538 11.914994 -7.986942 6.117766 2.810583 0.062500 10.783000
H 6.690792 13.278530 7.598424 7.660846 2.222513 3.570915 0.062500 10.783000
O 6.368305 13.238956 7.609984 0.767333 -3.976421 1.285210 1.000000 -21.566000
H 6.303692 13.124370 7.911430 3.384798 -1.302020 6.162924 0.062500 10.783000
H 10.171491 0.594460 12.320102 -1.042193 -7.533941 -10.335319 0.062500 10.783000
O 9.930877 0.819787 12.302538 -0.033055 2.948892 -0.787833 1.000000 -21.566000
H 9.960628 0.988871 12.027694 -11.218325 -1.406041 -8.347351 0.062500 10.783000
H 8.656591 2.867020 14.503697 4.278567 -8.216834 8.925617 0.062500 10.783000
O 8.601212 2.888050 14.190922 -2.444232 1.216988 3.998297 1.000000 -21.566000
H 8.753804 3.133569 14.087918 2.264474 6.428887 10.723065 0.062500 10.783000
H 13.818340 7.169649 0.737353 7.433184 5.536134 -6.834599 0.062500 10.783000
O 13.523121 7.069088 0.805695 0.456200 0.812326 0.797971 1.000000 -21.566000
H 13.538485 6.839599 1.050264 -5.031543 -13.288467 4.945488 0.062500 10.783000
H 12.709319 12.870374 5.086776 -1.496195 1.680909 8.450350 0.062500 10.783000
O 12.705824 12.759872 4.796994 -2.620834 -3.667248 -1.632993 1.000000 -21.566000
H 12.992801 12.681654 4.689274 -11.333063 16.303899 -8.916880 0.062500 10.783000
H 9.429187 2.134337 6.608454 6.833390 -4.837502 26.281359 0.062500 10.783000
O 9.644160 2.232982 6.820473 -3.371931 -3.305470 3.334056 1.000000 -21.566000
H 9.933110 2.199577 6.677306 -2.011883 6.231052 -9.119550 0.062500 10.783000
H 7.027606 13.302266 4.294216 -0.696924 1.464091 5.538691 0.062500 10.783000
O 6.909606 13.418314 4.021078 -3.187464 -1.591174 -0.106142 1.000000 -21.566000
H 6.797324 13.215667 3.813244 7.654016 8.397581 2.536191 0.062500 10.783000
H 0.034347 12.437458 11.675171 -4.009514 -0.056611 1.775198 0.062500 10.783000
O 0.231657 12.669976 11.589940 0.313509 0.358811 -1.936748 1.000000 -21.566000
H 0.487292 12.528405 11.710163 -8.700051 -1.474226 -8.245303 0.062500 10.783000
H 1.796043 1.529505 11.770996 10.469634 6.618523 -7.467447 0.062500 10.783000
O 1.945630 1.335331 11.980255 -1.116230 0.956367 2.770263 1.000000 -21.566000
H 1.775129 1.070368 11.937489 12.630388 -4.758666 9.097665 0.062500 10.783000
H 8.944371 10.259858 13.103558 -1.980482 -5.685454 23.207011 0.062500 10.783000
O 8.772754 10.003344 13.012559 -3.812628 1.298267 1.930230 1.000000 -21.566000
H 8.708409 9.894191 13.296296 6.018483 -0.832872 -4.670625 0.062500 10.783000
H 0.215979 0.003998 13.973871 14.201518 9.440649 3.567412 0.062500 10.783000
O 0.172946 0.283351 14.123576 -0.590585 1.732801 -3.232705 1.000000 -21.566000
H 0.213274 0.520188 13.913335 11.161713 -5.704527 -0.800452 0.062500 10.783000
H 2.440913 14.232031 10.858272 -2.165652 -5.106698 -0.907388 0.062500 10.783000
O 2.125507 14.225100 10.862076 1.244725 -1.593498 1.228277 1.000000 -21.566000
H 2.050054 13.958046 11.026115 -3.753724 1.572435 4.882683 0.062500 10.783000
H 9.533880 3.174840 2.369451 -3.964490 -9.218117 -12.038040 0.062500 10.783000
O 9.610513 2.903572 2.519460 -0.551966 -4.816136 -1.389799 1.000000 -21.566000
H 9.416215 2.669590 2.426606 7.155500 -7.071266 9.666178 0.062500 10.783000
H 1.122409 10.203312 14.653337 -12.435832 -0.764141 5.905969 0.062500 10.783000
O 1.221398 9.917406 0.008436 2.524843 3.511755 -0.834688 1.000000 -21.566000
H 1.266548 9.949150 0.329730 -0.882813 6.705329 -2.039870 0.062500 10.783000
H 6.186626 11.687918 10.573078 4.613808 0.238869 5.884840 0.062500 10.783000
O 6.381237 11.738188 10.317111 0.278914 -0.483924 -0.027753 1.000000 -21.566000
H 6.403470 12.054573 10.277091 -0.784101 1.121232 -5.616328 0.062500 10.783000
H 6.127512 7.461230 0.638908 -0.178874 1.198902 -18.079725 0.062500 10.783000
O 6.261087 7.170942 0.717632 -4.641305 0.239598 -1.324251 1.000000 -21.566000
H 6.342141 7.015097 0.447856 1.814081 -2.281232 6.692376 0.062500 10.783000
H 5.418880 2.974512 11.846152 -10.392693 6.456972 -4.713461 0.062500 10.783000
O 5.227636 3.175024 12.007182 -0.449034 -3.459859 0.914779 1.000000 -21.566000
H 5.206629 3.084573 12.307893 -15.322338 1.396178 -2.196294 0.062500 10.783000
H 2.950734 9.962586 13.335130 -0.043432 7.856231 -6.863491 0.062500 10.783000
O 3.095488 10.133719 13.562941 1.286855 -1.374955 0.009416 1.000000 -21.566000
H 3.415659 10.166747 13.487369 -3.238491 4.110451 -11.919448 0.062500 10.783000
H 7.794690 6.512331 0.824666 -8.352709 -4.276182 1.377032 0.062500 10.783000
O 7.719886 6.375590 0.536058 -3.723628 -1.729190 -0.517487 1.000000 -21.566000
H 7.996320 6.464443 0.374544 6.243165 -19.964636 2.547039 0.062500 10.783000
H 9.153375 6.143024 6.237710 1.229429 7.799067 3.684625 0.062500 10.783000
O 9.089565 5.970883 6.490255 -2.794819 1.333987 -0.213517 1.000000 -21.566000
H 8.823038 5.814291 6.428140 1.924307 -13.172313 -14.671038 0.062500 10.783000
H 0.293231 8.355704 0.871408 -0.460859 3.452798 5.005699 0.062500 10.783000
O 0.412131 8.540699 1.120758 0.207310 -0.997986 1.094735 1.000000 -21.566000
H 0.153694 8.622743 1.296490 0.465865 -8.042575 -2.616572 0.062500 10.783000
H 12.097182 0.829274 14.244310 5.654576 2.791199 -7.320363 0.062500 10.783000
O 11.861930 0.869135 14.470627 1.892411 -3.668117 -1.799458 1.000000 -21.566000
H 11.839334 1.169370 14.494614 16.524003 0.671833 1.151993 0.062500 10.783000
H 0.364637 6.497462 6.735233 6.685557 -0.635345 -6.739843 0.062500 10.783000
O 0.361772 6.179952 6.704076 -5.254423 0.314120 1.800164 1.000000 -21.566000
H 0.614949 6.148216 6.506058 -0.165498 1.381039 -3.707738 0.062500 10.783000
H 14.470553 2.784398 4.706058 -1.401884 1.969177 3.492122 0.062500 10.783000
O 14.212595 2.637189 4.817959 3.375265 -0.133255 -1.401378 1.000000 -21.566000
H 13.972866 2.746715 4.629204 3.713572 -3.897778 1.866939 0.062500 10.783000
H 13.309736 1.839377 11.810028 -16.259792 5.433168 -1.423853 0.062500 10.783000
O 13.483077 1.803464 12.087680 0.224837 -3.256855 0.173419 1.000000 -21.566000
H 13.655996 2.071288 12.110090 -8.578908 1.841829 3.380071 0.062500 10.783000
H 3.723836 13.369704 1.612522 3.156214 4.480375 5.973028 0.062500 10.783000
O 3.864049 13.253544 1.875546 0.608234 2.351712 -2.210250 1.000000 -21.566000
H 3.650099 13.276482 2.121379 -2.335665 -6.711022 -6.813583 0.062500 10.783000
H 13.845258 6.356232 5.811926 -5.292833 5.628183 -0.911549 0.062500 10.783000
O 14.082066 6.569176 5.727238 -2.301786 -1.673274 0.363245 1.000000 -21.566000
H 13.956217 6.867596 5.772433 -3.813455 3.544551 4.292012 0.062500 10.783000
H 5.758231 0.693823 11.953129 -4.140508 1.096956 11.906082 0.062500 10.783000
O 5.630017 0.876618 11.741300 3.876949 1.245241 2.084701 1.000000 -21.566000
H 5.365864 0.742127 11.611616 -10.948780 -3.767853 21.957424 0.062500 10.783000
H 1.166806 7.700387 11.727543 5.863637 -3.348789 2.136653 0.062500 10.783000
O 0.892639 7.540989 11.660249 5.203074 -1.826909 0.026878 1.000000 -21.566000
H 0.858136 7.251556 11.819146 -1.068030 -4.573966 2.372100 0.062500 10.783000
H 3.637507 3.029669 1.636048 9.987456 2.939699 12.124658 0.062500 10.783000
O 3.380441 3.135308 1.802015 -0.673270 1.175711 -4.370192 1.000000 -21.566000
H 3.538409 3.332144 2.010192 8.453120 5.427184 -0.646963 0.062500 10.783000
H 9.238507 3.148550 11.913127 -12.627702 5.298662 6.312692 0.062500 10.783000
O 9.468167 3.383879 11.955779 -4.977539 -0.379272 -1.815973 1.000000 -21.566000
H 9.768449 3.307496 11.894178 -5.248870 5.026332 0.496816 0.062500 10.783000
H 3.416992 1.980203 12.552952 5.972207 -1.332165 -2.484498 0.062500 10.783000
O 3.177280 2.189684 12.600397 1.790665 2.666140 -0.784602 1.000000 -21.566000
H 2.885728 2.054889 12.635238 -6.775438 -17.697399 -4.715379 0.062500 10.783000
H 13.391066 9.088535 0.112697 1.092531 -9.419386 -9.704689 0.062500 10.783000
O 13.097598 9.218727 0.081779 -0.607446 -0.549255 -3.552658 1.000000 -21.566000
H 13.078269 9.477037 0.244131 2.941722 1.969730 -0.746559 0.062500 10.783000
H 11.376579 13.874196 1.432710 3.242477 5.593110 -16.134870 0.062500 10.783000
O 11.489183 13.886149 1.743808 4.399280 -4.144519 -4.401568 1.000000 -21.566000
H 11.807887 13.899172 1.749303 8.578522 -2.601986 -9.049838 0.062500 10.783000
H 9.213736 4.255745 13.260030 -14.307431 4.081585 -8.989005 0.062500 10.783000
O 9.108214 4.554824 13.322828 -0.412786 -0.163952 1.078866 1.000000 -21.566000
H 8.937338 4.539432 13.595810 -2.133463 -1.189926 0.991473 0.062500 10.783000
H 7.302806 11.548402 8.136527 -7.266049 -1.131326 5.895713 0.062500 10.783000
O 7.563382 11.366690 8.098749 -1.161466 -0.108274 -0.481499 1.000000 -21.566000
H 7.551618 11.156820 8.342226 -5.854747 1.376762 -3.875994 0.062500 10.783000
H 3.031195 6.232747 0.509994 4.880614 -19.399423 -7.109992 0.062500 10.783000
O 3.334530 6.203080 0.611925 1.370507 0.088815 3.649431 1.000000 -21.566000
H 3.374318 6.432535 0.842409 8.594301 -7.559635 -2.471519 0.062500 10.783000
H 10.966955 10.733176 11.303717 -3.509365 -1.122555 4.271855 0.062500 10.783000
O 10.764795 10.661209 11.549648 2.059070 -0.855560 -0.629274 1.000000 -21.566000
H 10.950630 10.600347 11.811061 -13.440294 -1.141270 11.424588 0.062500 10.783000
H 3.064345 3.427163 10.627317 -0.365358 2.086868 4.168034 0.062500 10.783000
O 2.893948 3.690466 10.583041 -1.421101 0.362444 0.756685 1.000000 -21.566000
H 2.833394 3.827012 10.872297 11.259754 -0.653657 4.979329 0.062500 10.783000
H 1.951632 6.757292 1.368469 -7.394929 8.377770 6.233344 0.062500 10.783000
O 2.210979 6.847871 1.195447 0.178847 4.119008 7.000269 1.000000 -21.566000
H 2.127780 7.107950 1.016850 -3.072139 3.882184 12.283517 0.062500 10.783000
H 6.861328 11.004577 0.215068 6.700183 6.186534 12.390244 0.062500 10.783000
O 6.949201 11.306750 0.207865 -0.079382 -0.376571 0.744831 1.000000 -21.566000
H 7.034472 11.424316 14.661950 4.408382 11.086787 7.319904 0.062500 10.783000
H 5.943670 5.783110 12.279728 2.934819 -13.293677 -9.976453 0.062500 10.783000
O 6.132325 5.534989 12.378575 0.642784 -3.931248 0.306605 1.000000 -21.566000
H 6.317935 5.450981 12.130419 2.009059 -19.708607 -0.109131 0.062500 10.783000
H 0.562747 5.897985 12.250836 -5.671947 4.060200 -9.291906 0.062500 10.783000
O 0.849012 5.762995 12.307059 -0.463554 1.123453 -3.413017 1.000000 -21.566000
H 1.080877 5.976104 12.349068 -2.385111 -6.568197 8.134338 0.062500 10.783000
H 4.322307 7.244242 1.857225 13.384532 3.344793 -5.772840 0.062500 10.783000
O 4.432215 7.543239 1.791158 -3.307422 -1.611272 -1.909692 1.000000 -21.566000
H 4.369413 7.741536 2.033755 -3.057553 -7.399398 8.899346 0.062500 10.783000
H 8.062513 13.236993 13.556737 10.442675 7.070580 3.720284 0.062500 10.783000
O 7.812042 13.177770 13.366307 -2.086850 0.581375 -4.541844 1.000000 -21.566000
H 7.660257 12.939164 13.503731 6.153534 4.629470 -22.289353 0.062500 10.783000
H 5.623709 5.134509 1.469502 4.608739 -0.488354 -1.857677 0.062500 10.783000
O 5.468878 5.424087 1.516183 1.352845 1.254329 -1.464960 1.000000 -21.566000
H 5.595977 5.547539 1.809858 3.225460 -7.674766 4.491164 0.062500 10.783000
H 6.108813 14.605523 10.768541 5.450757 1.763554 -10.980472 0.062500 10.783000
O 5.886700 0.098157 10.741103 1.360975 -1.465604 -3.030264 1.000000 -21.566000
H 6.062860 0.315979 10.892261 9.670883 -5.346961 -4.487668 0.062500 10.783000
H 11.559853 12.776750 10.251846 -6.446815 -5.877988 3.530910 0.062500 10.783000
O 11.793033 12.547216 10.261156 -0.148450 2.072161 0.372638 1.000000 -21.566000
H 11.634094 12.268128 10.228109 -3.066510 -6.882304 -1.917686 0.062500 10.783000
H 9.894340 5.803413 2.257823 -7.137685 -14.339893 -5.847372 0.062500 10.783000
O 9.671267 5.759386 2.474955 -0.226422 -3.533318 1.519224 1.000000 -21.566000
H 9.789193 5.757955 2.782159 10.784490 -0.460097 18.544901 0.062500 10.783000
H 10.447340 2.033530 0.269736 2.110135 2.081662 -7.972935 0.062500 10.783000
O 10.543223 2.215849 0.523379 1.426487 -1.428058 2.425466 1.000000 -21.566000
H 10.283831 2.234042 0.719113 -8.426972 -0.558469 6.105618 0.062500 10.783000
H 12.428273 1.235260 0.420168 -7.252509 4.599385 -1.075683 0.062500 10.783000
O 12.201666 1.033238 0.493275 -4.109538 1.253722 -0.748843 1.000000 -21.566000
H 12.031745 1.015229 0.222425 2.196930 -9.067371 10.762094 0.062500 10.783000
H 11.750953 11.196812 13.043966 -1.244953 7.857885 14.569254 0.062500 10.783000
O 11.547609 11.110903 13.293676 -5.509722 -0.244568 -2.097650 1.000000 -21.566000
H 11.451877 11.389909 13.447124 -0.215325 6.130897 10.115511 0.062500 10.783000
H 1.855443 8.907227 5.317670 -5.859651 1.330600 -1.453017 0.062500 10.783000
O 1.735683 8.788451 5.577775 -2.235098 2.004363 -2.250039 1.000000 -21.566000
H 1.694608 9.044186 5.758341 -6.765315 -0.672817 2.030033 0.062500 10.783000
H 13.137415 7.122460 4.066425 -22.087760 9.176961 -8.918093 0.062500 10.783000
O 13.294914 6.864894 3.976171 0.361775 2.209830 -1.388123 1.000000 -21.566000
H 13.156093 6.780138 3.696819 13.568201 2.217387 -4.192372 0.062500 10.783000
H 5.384710 4.408277 8.795194 11.412248 -1.278312 4.935752 0.062500 10.783000
O 5.425779 4.431425 8.478136 -1.063345 -2.540673 3.292285 1.000000 -21.566000
H 5.655314 4.210469 8.397738 10.110068 4.195562 -1.807774 0.062500 10.783000
H 0.285901 3.355638 10.880263 -6.452313 9.775631 1.877686 0.062500 10.783000
O 0.008736 3.230264 10.995580 0.345152 2.317251 1.835038 1.000000 -21.566000
H 14.525656 3.407799 10.846344 -7.607915 0.770322 -5.609182 0.062500 10.783000
H 5.520223 14.165453 14.468807 -4.479197 11.639591 -4.693025 0.062500 10.783000
O 5.262945 13.975531 14.526585 2.776063 0.539854 2.320915 1.000000 -21.566000
H 5.040151 14.133022 14.694346 -7.136033 -16.910375 2.816378 0.062500 10.783000
H 2.939829 3.070366 0.897346 -0.573080 4.406123 -3.819095 0.062500 10.783000
O 3.021451 2.806062 0.721918 0.682937 4.615574 -0.232711 1.000000 -21.566000
H 3.339169 2.845327 0.699741 -4.322261 6.168624 -1.803991 0.062500 10.783000
H 4.154580 7.042274 13.939670 -5.012590 7.559077 -16.021269 0.062500 10.783000
O 4.214243 7.282551 14.148591 0.001820 -1.412092 0.158580 1.000000 -21.566000
H 4.024065 7.199369 14.398237 -4.351687 3.611351 -11.206140 0.062500 10.783000
H 7.165801 2.798813 3.193460 -1.372618 -5.922445 -0.842252 0.062500 10.783000
O 7.451264 2.639955 3.172444 -5.457250 -0.972647 -1.139941 1.000000 -21.566000
H 7.627597 2.833078 3.348667 -9.606171 4.102324 15.629385 0.062500 10.783000
H 4.783017 0.694547 1.209098 2.045631 -12.448364 8.195278 0.062500 10.783000
O 4.951965 0.542609 1.430048 -3.958461 -1.476737 1.318653 1.000000 -21.566000
H 4.714460 0.452750 1.634824 -6.669683 5.437349 -2.925486 0.062500 10.783000
H 8.070288 12.591711 11.987714 -3.626716 -0.749907 12.431121 0.062500 10.783000
O 8.115962 12.402828 11.713895 0.674257 -0.419194 0.944011 1.000000 -21.566000
H 8.005324 12.111941 11.765846 3.401328 7.235663 1.554739 0.062500 10.783000
H 11.206100 6.267017 14.658583 -5.124712 5.090644 2.794561 0.062500 10.783000
O 11.324824 6.010687 14.529263 -4.829048 0.211052 -2.183164 1.000000 -21.566000
H 11.085363 5.884451 14.358746 1.801071 0.770649 5.500240 0.062500 10.783000
H 0.123070 6.615960 1.990351 4.188001 -3.954292 -3.518975 0.062500 10.783000
O 0.418487 6.734623 1.932352 0.686156 -0.587207 0.259321 1.000000 -21.566000
H 0.571749 6.766955 2.211842 17.208387 -17.594710 -1.748422 0.062500 10.783000
H 11.666215 7.978411 2.215700 -6.136061 15.860634 0.925931 0.062500 10.783000
O 11.537738 7.683849 2.174192 0.579584 0.739789 -0.126525 1.000000 -21.566000
H 11.711893 7.519995 2.375092 7.175717 0.741017 6.000933 0.062500 10.783000
H 9.592599 5.439688 13.355651 -2.296396 -0.008085 3.302956 0.062500 10.783000
O 9.380381 5.632520 13.492825 2.247020 -0.995170 -0.026771 1.000000 -21.566000
H 9.532513 5.856207 13.642641 2.612449 3.286218 3.566870 0.062500 10.783000
H 13.600940 4.474474 4.000215 -3.054102 -0.711238 3.326791 0.062500 10.783000
O 13.925592 4.463363 4.032004 -1.267717 -2.837633 4.204746 1.000000 -21.566000
H 14.053430 4.751433 3.948606 2.979926 -1.855285 -0.172007 0.062500 10.783000
H 1.080573 6.868044 12.893785 0.686978 -2.011008 5.944509 0.062500 10.783000
O 0.791870 6.755238 12.934941 1.395943 -0.955631 -2.269948 1.000000 -21.566000
H 0.573071 6.985168 12.943709 -8.865062 -3.250149 -7.663776 0.062500 10.783000
H 1.047746 8.646245 1.819173 -5.244606 -8.285442 6.546015 0.062500 10.783000
O 1.118622 8.957483 1.796723 -2.154924 -2.297502 -0.295043 1.000000 -21.566000
H 1.240834 9.060502 2.077338 7.604719 4.879814 -8.080523 0.062500 10.783000
H 1.184755 3.945156 1.330905 -1.174387 10.617613 11.153591 0.062500 10.783000
O 1.024339 3.926618 1.038024 0.297269 1.906904 -2.498200 1.000000 -21.566000
H 0.691548 3.965393 1.063859 -11.516910 2.240825 -1.971884 0.062500 10.783000
H 2.319503 1.656346 4.334289 3.703029 1.885231 0.599989 0.062500 10.783000
O 2.065937 1.564794 4.146693 3.121863 2.242496 0.814197 1.000000 -21.566000
H 1.849627 1.383740 4.307318 -8.185040 -2.350932 -7.907722 0.062500 10.783000
H 5.212539 6.823054 13.782300 22.083559 -10.914357 10.401164 0.062500 10.783000
O 5.318300 7.130563 13.740747 -2.660594 2.595295 -1.267652 1.000000 -21.566000
H 5.346176 7.276413 14.023365 6.904357 -12.357416 -3.127623 0.062500 10.783000
H 2.087696 8.431391 2.490417 -6.547713 -19.630836 6.977642 0.062500 10.783000
O 1.855054 8.585686 2.321110 1.107875 -3.941000 0.072866 1.000000 -21.566000
H 1.887280 8.579840 1.997773 -16.971547 4.931305 -5.310592 0.062500 10.783000
H 5.353888 6.850305 3.404142 -0.764803 -2.445270 -12.238869 0.062500 10.783000
O 5.125753 7.076640 3.390152 -0.533736 2.196913 0.481362 1.000000 -21.566000
H 4.864348 6.893460 3.397705 7.032940 -12.480315 0.462551 0.062500 10.783000
H 1.075478 14.309540 11.941278 -3.488322 -3.800718 -3.477281 0.062500 10.783000
O 1.007560 14.536077 12.163482 0.030821 1.406840 -1.939910 1.000000 -21.566000
H 0.796343 14.470882 12.380655 2.236284 -10.069478 -7.800824 0.062500 10.783000
H 6.841618 7.729971 10.962260 4.811620 2.130224 -4.997645 0.062500 10.783000
O 6.728828 7.926521 10.745758 0.358387 0.069291 -1.048942 1.000000 -21.566000
H 6.944479 8.113823 10.605110 0.256308 -1.214400 2.531420 0.062500 10.783000
H 14.132816 3.009255 13.321173 2.908856 9.077286 1.244836 0.062500 10.783000
O 13.887265 2.914213 13.134050 -1.365877 -2.470803 0.733094 1.000000 -21.566000
H 13.682867 3.153268 13.133264 -0.672978 6.285750 -10.830735 0.062500 10.783000
H 8.908122 4.765466 3.377276 6.730860 0.138573 -14.004781 0.062500 10.783000
O 8.636036 4.623302 3.478143 0.299516 -1.790542 -1.758210 1.000000 -21.566000
H 8.712080 4.390786 3.681535 -0.298509 11.625698 2.735453 0.062500 10.783000
H 9.064208 14.681703 10.497348 2.771814 -2.841159 14.394730 0.062500 10.783000
O 8.785278 14.532401 10.427495 2.888734 0.322932 -0.717800 1.000000 -21.566000
H 8.814873 14.260233 10.252850 3.296187 -7.372705 10.312859 0.062500 10.783000
H 9.046055 13.206173 0.558037 -8.518993 -8.656587 6.208760 0.062500 10.783000
O 9.285213 13.327877 0.743969 1.671004 -1.862508 1.480935 1.000000 -21.566000
H 9.261322 13.649324 0.726061 1.456452 1.520526 7.716166 0.062500 10.783000
H 7.225011 7.986747 14.486977 -4.008452 -2.272519 -11.365692 0.062500 10.783000
O 7.214070 8.233977 14.288688 -0.660565 2.917201 -0.064027 1.000000 -21.566000
H 6.915922 8.266738 14.180947 -3.513637 -2.796774 0.937268 0.062500 10.783000
H 9.673455 12.198973 9.638452 -3.162456 -2.647676 -11.605040 0.062500 10.783000
O 9.853527 11.930667 9.614873 0.114165 -0.287959 -3.840015 1.000000 -21.566000
H 9.768713 11.765534 9.362752 9.978150 -1.712101 -10.868904 0.062500 10.783000
H 0.544265 3.831276 5.652126 -9.166797 -2.074932 4.008364 0.062500 10.783000
O 0.275207 4.006015 5.614825 -2.983786 -0.346016 -1.360582 1.000000 -21.566000
H 0.074120 3.896673 5.843688 14.394888 -9.749742 -1.130438 0.062500 10.783000
H 6.981283 10.085714 12.719665 -1.012914 0.099725 -10.660243 0.062500 10.783000
O 6.672567 10.015758 12.621855 -0.959367 -4.000272 -0.208314 1.000000 -21.566000
H 6.733290 9.750399 12.455267 17.504106 16.370289 2.332523 0.062500 10.783000
H 4.426947 4.617452 3.135030 4.643102 23.258482 2.705252 0.062500 10.783000
O 4.712099 4.499199 3.231404 -0.973958 2.935204 2.865403 1.000000 -21.566000
H 4.871249 4.738963 3.361728 -5.121482 -6.082077 3.993552 0.062500 10.783000
H 11.394288 13.444091 10.217955 8.753206 -3.842613 -6.476452 0.062500 10.783000
O 11.215958 13.185064 10.312657 -0.562870 2.653933 2.318261 1.000000 -21.566000
H 10.918600 13.240534 10.180896 -4.875737 -4.994041 -3.042895 0.062500 10.783000
H 6.762699 8.810301 13.582975 -2.547671 -6.526865 -21.272118 0.062500 10.783000
O 6.553561 8.581378 13.535426 -2.778396 -1.091845 0.238465 1.000000 -21.566000
H 6.281692 8.608147 13.719224 -5.072320 -3.956447 -12.266346 0.062500 10.783000
H 14.541526 8.559536 13.621140 -15.733960 -3.380074 0.417275 0.062500 10.783000
O 14.539973 8.572295 13.304175 1.734570 0.359022 0.901249 1.000000 -21.566000
H 0.099448 8.668718 13.229657 0.882376 10.978919 -6.671241 0.062500 10.783000
H 8.989259 11.636393 11.160276 6.460638 -7.892526 -2.755683 0.062500 10.783000
O 9.304892 11.689388 11.176195 1.644534 3.749151 0.530394 1.000000 -21.566000
H 9.416936 11.636929 10.880311 -2.275299 2.059975 -1.480357 0.062500 10.783000
H 8.633111 7.411037 14.718427 0.314226 3.865239 10.661527 0.062500 10.783000
O 8.781015 7.160186 14.565678 1.966956 0.393369 3.394926 1.000000 -21.566000
H 9.105698 7.201263 14.509129 0.523227 5.413348 -5.781393 0.062500 10.783000
H 7.351771 3.261455 0.043617 5.166653 -14.665448 8.889757 0.062500 10.783000
O 7.042766 3.303366 0.103461 2.243848 1.624066 2.397166 1.000000 -21.566000
H 6.877188 3.395091 14.575878 -3.536454 11.271281 5.197465 0.062500 10.783000
H 0.125204 9.909111 12.759071 1.836140 -3.281884 5.177160 0.062500 10.783000
O 0.310402 10.055825 12.985154 1.922171 -0.853705 3.270464 1.000000 -21.566000
H 0.407276 9.853086 13.205366 -2.476870 -1.759595 -6.894285 0.062500 10.783000
H 10.575666 9.536551 8.146889 5.677099 -15.231054 -3.899440 0.062500 10.783000
O 10.784094 9.490185 8.379504 1.152325 0.747585 -2.851686 1.000000 -21.566000
H 11.051631 9.335761 8.281318 9.846081 -6.651410 8.825688 0.062500 10.783000
H 12.271030 8.225328 4.395287 -2.370369 5.057877 -5.024004 0.062500 10.783000
O 12.515188 8.366362 4.559389 -1.285641 -2.565036 0.759901 1.000000 -21.566000
H 12.809786 8.251166 4.483547 -5.004227 -1.553616 -12.056949 0.062500 10.783000
H 11.988490 10.616493 2.542734 1.493991 0.579240 7.616168 0.062500 10.783000
O 11.744481 10.612149 2.752294 -2.346183 1.795745 -0.185205 1.000000 -21.566000
H 11.600629 10.892745 2.737026 13.888017 -4.519323 6.784240 0.062500 10.783000
H 14.099857 4.615567 2.910698 -2.537418 -9.882464 6.387923 0.062500 10.783000
O 13.834939 4.438621 2.923756 1.736432 -3.078464 2.328260 1.000000 -21.566000
H 13.609094 4.673001 2.919019 -2.194287 -3.272888 1.059330 0.062500 10.783000
H 14.236138 9.906104 1.735068 18.033851 -10.295564 0.698048 0.062500 10.783000
O 14.048089 10.014304 1.491915 -0.046552 -1.558960 -2.010281 1.000000 -21.566000
H 14.023732 9.782261 1.264128 -8.378218 3.153842 -6.240423 0.062500 10.783000
H 10.643768 10.128965 5.292348 -0.670900 -7.316841 -4.419794 0.062500 10.783000
O 10.532219 10.191897 5.003348 2.425814 -2.036968 2.849207 1.000000 -21.566000
H 10.757044 10.208947 4.756530 -6.401732 8.504070 -7.393121 0.062500 10.783000
H 1.925587 4.785755 13.400059 5.746786 1.457212 9.981885 0.062500 10.783000
O 2.199557 4.873386 13.554169 0.253366 2.256601 -0.077685 1.000000 -21.566000
H 2.401646 4.639846 13.511615 -1.588792 14.144972 -16.407149 0.062500 10.783000
H 14.343018 6.011729 0.802900 7.193885 2.719065 -7.087595 0.062500 10.783000
O 14.366311 6.269319 0.977945 -1.122452 3.394004 -0.715641 1.000000 -21.566000
H 14.411333 6.528617 0.803686 -4.431815 -4.965636 3.478385 0.062500 10.783000
H 6.271444 11.230643 13.044158 -1.846761 -11.027327 -17.683509 0.062500 10.783000
O 6.268220 11.537057 12.943945 -3.900703 -2.943749 0.515798 1.000000 -21.566000
H 6.181222 11.727706 13.189133 -12.611690 4.318904 -7.838860 0.062500 10.783000
H 3.518896 12.334697 0.827297 21.335963 -3.408783 6.973517 0.062500 10.783000
O 3.594579 12.559977 0.589195 -1.105952 -0.415958 1.185564 1.000000 -21.566000
H 3.738911 12.449697 0.309971 7.245524 9.372000 -8.298410 0.062500 10.783000
H 4.713597 4.269482 12.603847 1.166925 -3.685080 -3.349778 0.062500 10.783000
O 4.455649 4.421662 12.689044 -1.007042 -0.809204 -1.565089 1.000000 -21.566000
H 4.329615 4.527245 12.412482 3.138272 -14.802034 -9.167487 0.062500 10.783000
H 8.307303 4.272634 4.938305 -11.120524 12.404699 -7.283100 0.062500 10.783000
O 8.094570 4.206557 5.163980 -2.222862 -1.069682 -4.204136 1.000000 -21.566000
H 8.194767 4.067624 5.435800 4.196499 6.698739 -4.849825 0.062500 10.783000
H 11.859816 11.824226 3.290724 -2.281904 15.524661 -7.108987 0.062500 10.783000
O 11.597031 11.782330 3.479666 0.784107 -0.777694 -0.550660 1.000000 -21.566000
H 11.649526 11.629522 3.758809 3.970548 -5.296384 4.857393 0.062500 10.783000
H 5.327085 7.937609 5.950855 -8.878725 1.854847 9.291695 0.062500 10.783000
O 5.040402 7.980212 6.096011 0.458581 0.257684 -1.235836 1.000000 -21.566000
H 5.102693 8.076026 6.400884 0.677681 -7.560222 2.527080 0.062500 10.783000
H 11.661925 6.872441 3.569992 -2.620974 -3.476454 -1.528603 0.062500 10.783000
O 11.831978 6.983333 3.833602 1.819931 -3.273359 2.322714 1.000000 -21.566000
H 12.137111 6.926933 3.768259 -9.768013 -6.759768 10.442446 0.062500 10.783000
H 10.171498 8.162467 9.381782 -4.722349 -9.737699 9.730575 0.062500 10.783000
O 10.042798 7.868052 9.345667 1.334346 2.182094 2.022115 1.000000 -21.566000
H 10.030239 7.702288 9.620589 8.666981 -3.895811 -2.732322 0.062500 10.783000
H 9.619541 10.073957 12.447348 10.583908 -2.384227 12.177184 0.062500 10.783000
O 9.339684 9.933735 12.346993 0.221744 -3.929023 -1.354027 1.000000 -21.566000
H 9.177105 9.873402 12.611669 -0.908413 -1.432038 2.478859 0.062500 10.783000
H 8.352804 9.524956 10.231744 -2.647864 3.099724 -4.627847 0.062500 10.783000
O 8.265916 9.371117 9.981109 -0.046095 -1.690823 -0.945313 1.000000 -21.566000
H 8.370332 9.547556 9.740498 -5.812939 7.179244 -8.123128 0.062500 10.783000
H 1.646970 7.160755 2.368660 -4.278519 -5.607162 5.946081 0.062500 10.783000
O 1.781944 7.435700 2.289569 -1.128601 -1.675269 0.765736 1.000000 -21.566000
H 1.692212 7.461092 1.975145 -3.634565 -0.041543 -1.205346 0.062500 10.783000
H 1.840161 14.143641 12.765537 -13.425697 3.462460 11.096563 0.062500 10.783000
O 1.656605 14.034551 12.514188 -3.658028 0.484440 -1.480280 1.000000 -21.566000
H 1.412814 14.258090 12.501683 -5.925928 -2.143908 9.657337 0.062500 10.783000
H 5.145904 9.848307 1.451371 -5.472599 6.848980 -7.808590 0.062500 10.783000
O 5.437551 9.964805 1.503679 1.975427 1.682551 -2.489682 1.000000 -21.566000
H 5.668171 9.772269 1.373539 -17.975627 -17.489566 -7.957313 0.062500 10.783000
H 13.931335 8.406974 0.419817 15.550570 4.708909 -6.464341 0.062500 10.783000
O 13.808195 8.699701 0.449031 -0.679211 4.279260 0.696975 1.000000 -21.566000
H 13.704327 8.691452 0.761544 -16.331794 7.299970 2.632897 0.062500 10.783000
H 11.037742 9.535929 10.409019 3.985567 -9.753314 -5.359817 0.062500 10.783000
O 11.186328 9.702612 10.632520 0.836068 0.510069 1.553889 1.000000 -21.566000
H 11.100410 10.010042 10.614334 -5.617944 9.879983 -5.186834 0.062500 10.783000
H 1.374525 4.762100 13.208303 -3.263624 9.738198 -7.988045 0.062500 10.783000
O 1.573290 4.542740 13.063778 1.345881 2.049766 3.226274 1.000000 -21.566000
H 1.473673 4.249964 13.111530 4.798225 -9.089685 -0.378972 0.062500 10.783000
H 1.559738 9.430759 0.016340 -0.143327 2.163197 -2.234721 0.062500 10.783000
O 1.592329 9.127820 14.670678 1.931549 1.464690 4.247124 1.000000 -21.566000
H 1.796089 8.956421 0.111623 14.461643 1.337164 0.669238 0.062500 10.783000
H 13.941538 11.776645 2.219137 2.344837 -11.086431 -2.749342 0.062500 10.783000
O 13.657738 11.642370 2.276381 1.139051 -0.298357 0.187923 1.000000 -21.566000
H 13.712946 11.352711 2.402086 -9.887714 -4.800207 11.947762 0.062500 10.783000
H 3.167535 14.065832 13.643732 9.971050 6.014423 6.655478 0.062500 10.783000
O 2.878985 14.192561 13.551352 1.749871 -3.307669 2.653937 1.000000 -21.566000
H 2.744745 14.235321 13.841812 5.065728 17.987770 -0.261215 0.062500 10.783000
H 8.330652 11.811650 5.740603 2.405413 9.787747 11.737421 0.062500 10.783000
O 8.284986 12.002781 5.498880 1.809711 -3.077219 -1.022377 1.000000 -21.566000
H 8.173869 11.853545 5.233064 -4.358987 -12.272207 6.318279 0.062500 10.783000
H 9.232746 8.512718 10.100849 -4.864566 -0.658292 8.825306 0.062500 10.783000
O 9.502958 8.336553 10.134208 -1.585285 -3.485559 -0.547353 1.000000 -21.566000
H 9.421516 8.089190 10.299960 -7.631439 15.791272 -4.271263 0.062500 10.783000
H 13.542139 6.501440 12.356312 1.179539 -2.321780 1.419698 0.062500 10.783000
O 13.364186 6.617181 12.104745 -4.054914 -2.015641 1.105795 1.000000 -21.566000
H 13.132048 6.405904 12.029919 -6.196192 8.428193 -10.838730 0.062500 10.783000
H 11.790133 9.727378 3.140288 5.749027 6.850070 9.150016 0.062500 10.783000
O 11.538847 9.817716 2.967132 -1.993528 -0.646695 -1.802280 1.000000 -21.566000
H 11.613293 10.120286 2.853232 3.164214 5.278851 10.196627 0.062500 10.783000
H 12.178159 8.628081 6.494830 -10.085104 -7.408478 0.828161 0.062500 10.783000
O 11.867568 8.613458 6.466427 -1.401158 -1.547957 0.255579 1.000000 -21.566000
H 11.790266 8.704865 6.175579 10.981485 20.026169 -0.507324 0.062500 10.783000
H 9.751362 7.185589 3.391368 4.544445 -2.224922 -23.458875 0.062500 10.783000
O 9.694772 7.462805 3.280108 1.250789 -0.651442 0.272337 1.000000 -21.566000
H 9.973982 7.647100 3.279383 12.512854 -9.469321 7.616935 0.062500 10.783000
H 10.842376 9.983734 1.745481 1.940703 -4.426528 -5.449008 0.062500 10.783000
O 11.131439 9.961304 1.625778 0.880381 2.098724 4.680025 1.000000 -21.566000
H 11.121019 9.796400 1.360751 10.178918 5.942486 2.667947 0.062500 10.783000
H 10.189673 10.578810 9.742423 -0.133923 -7.480100 -4.657546 0.062500 10.783000
O 10.470265 10.722735 9.819818 -1.190504 -3.393114 3.686839 1.000000 -21.566000
H 10.461829 11.043149 9.825985 11.263380 3.488718 7.097373 0.062500 10.783000
H 4.397587 11.462538 14.206597 -5.756588 6.238344 -15.415283 0.062500 10.783000
O 4.536524 11.558801 13.952859 -0.610675 -1.645801 0.591755 1.000000 -21.566000
H 4.331373 11.586431 13.716496 2.196103 7.363850 -5.133148 0.062500 10.783000
H 9.033446 10.281499 11.926257 -1.734606 1.779692 0.171674 0.062500 10.783000
O 9.001166 10.590822 11.882012 -0.076251 -0.818152 0.225228 1.000000 -21.566000
H 9.101289 10.730289 12.142404 -2.814127 -5.578356 -4.552857 0.062500 10.783000
H 10.321880 9.949363 10.809822 -7.085745 -0.329578 10.606312 0.062500 10.783000
O 10.097709 9.739588 10.783827 -0.687488 -2.687856 0.654268 1.000000 -21.566000
H 10.194420 9.473836 10.621880 5.260377 2.447093 -1.685131 0.062500 10.783000
H 0.374379 12.744412 11.093515 -8.399347 -4.912237 4.332919 0.062500 10.783000
O 0.492007 12.676522 10.783327 2.763700 0.022989 0.554800 1.000000 -21.566000
H 0.332063 12.393811 10.725506 2.516679 9.011496 -0.824921 0.062500 10.783000
H 5.632789 11.167912 11.997199 4.241708 3.041785 12.602464 0.062500 10.783000
O 5.314108 11.084020 11.945522 1.486320 1.339622 0.209453 1.000000 -21.566000
H 5.277609 10.960668 12.231500 -6.286788 14.863721 -8.280325 0.062500 10.783000
H 7.610884 11.660028 2.214475 -1.662625 2.240114 -8.841664 0.062500 10.783000
O 7.456868 11.457411 2.020015 1.674938 0.783064 0.252655 1.000000 -21.566000
H 7.172263 11.417238 2.147548 12.190225 -10.196434 4.028979 0.062500 10.783000
H 13.324476 12.357276 13.166491 -17.496273 -0.012102 -2.582678 0.062500 10.783000
O 13.635175 12.269084 13.201924 -3.073196 -1.106604 3.049104 1.000000 -21.566000
H 13.684251 12.050562 12.967900 10.666716 4.258625 -11.888518 0.062500 10.783000
H 4.092637 1.323261 1.790130 1.119105 6.442858 6.872417 0.062500 10.783000
O 4.394776 1.231820 1.811577 2.615404 -1.592504 -0.396315 1.000000 -21.566000
H 4.500567 1.166075 2.110877 10.482181 12.059763 2.273854 0.062500 10.783000
H 10.452932 12.732836 5.863251 -5.647484 4.227424 -0.644785 0.062500 10.783000
O 10.515200 12.966497 6.078986 -2.082402 3.255390 -0.648777 1.000000 -21.566000
H 10.780811 13.133557 5.983808 0.367487 -0.474713 1.509504 0.062500 10.783000
H 1.813221 0.933888 2.960463 2.127372 -13.281326 11.638714 0.062500 10.783000
O 1.538776 1.083483 3.037349 2.329842 0.470220 -0.063314 1.000000 -21.566000
H 1.659242 1.364435 3.119425 7.432614 -7.155358 -5.723028 0.062500 10.783000
H 10.068830 13.030777 11.902440 4.506500 6.949392 0.936940 0.062500 10.783000
O 10.087531 12.747234 12.064283 1.822299 -0.286189 1.805659 1.000000 -21.566000
H 9.810692 12.672494 12.205097 10.268857 -10.375250 -4.297538 0.062500 10.783000
H 8.619714 8.931637 12.995183 6.258745 2.641487 -11.132757 0.062500 10.783000
O 8.501900 9.092673 13.257815 3.673004 0.330974 3.438094 1.000000 -21.566000
H 8.700566 9.302869 13.399307 14.598614 -4.654961 7.148581 0.062500 10.783000
H 2.067084 9.986230 10.024387 7.195834 -5.522325 -0.046291 0.062500 10.783000
O 2.047447 9.735908 9.815179 0.579654 -0.078037 -4.550179 1.000000 -21.566000
H 1.726720 9.725652 9.734708 -9.889525 1.656437 -7.839523 0.062500 10.783000
H 11.830333 11.420331 6.460851 0.205074 -0.448749 -10.727172 0.062500 10.783000
O 11.679856 11.298932 6.705457 0.699411 0.715195 0.941962 1.000000 -21.566000
H 11.899703 11.335531 6.937435 2.574093 -14.872112 -5.699522 0.062500 10.783000
H 13.829638 1.055686 13.570894 12.964214 -9.979045 3.136334 0.062500 10.783000
O 13.563318 0.927307 13.451818 1.305294 1.829601 -3.571989 1.000000 -21.566000
H 13.343296 1.099061 13.300802 7.119938 5.613547 0.431265 0.062500 10.783000
H 6.118864 9.830680 6.497437 -0.222512 6.511947 5.196949 0.062500 10.783000
O 6.387580 10.007854 6.530300 -1.359798 1.743534 2.423828 1.000000 -21.566000
H 6.485438 10.065640 6.238284 1.072112 10.479818 8.508075 0.062500 10.783000
H 11.244135 12.147987 7.084228 -19.388135 -2.984641 -6.057145 0.062500 10.783000
O 11.364053 12.158342 7.380694 -0.210599 1.204483 4.218221 1.000000 -21.566000
H 11.387933 12.460143 7.463828 -4.804049 -1.317601 6.656832 0.062500 10.783000
H 0.254654 7.394132 3.363686 -11.787729 -11.852586 2.256512 0.062500 10.783000
O 0.257538 7.659885 3.182887 2.074975 -0.635577 1.745704 1.000000 -21.566000
H 0.547822 7.772384 3.182435 -5.191480 -1.721086 -5.182942 0.062500 10.783000
H 14.476288 11.098654 10.249572 -1.114390 15.266325 0.246424 0.062500 10.783000
O 14.180815 11.026470 10.348591 0.206613 0.950908 -0.674878 1.000000 -21.566000
H 13.991169 11.130241 10.097146 0.423197 15.579756 -14.439165 0.062500 10.783000
H 8.144436 12.406521 8.427892 -3.426474 2.261911 -13.388089 0.062500 10.783000
O 7.827603 12.355315 8.409212 -0.682784 0.466444 -0.321783 1.000000 -21.566000
H 7.778263 12.201782 8.689396 -12.597931 -6.598067 -2.004395 0.062500 10.783000
H 2.722845 2.158382 11.416993 6.376885 -0.962524 12.122262 0.062500 10.783000
O 2.636703 1.864308 11.316606 1.313143 0.801362 3.069879 1.000000 -21.566000
H 2.513935 1.769308 11.584972 11.142755 2.678905 -3.389085 0.062500 10.783000
H 7.108438 12.492903 12.924899 11.017358 9.361376 -7.006108 0.062500 10.783000
O 7.366621 12.345506 12.801435 -3.799501 0.848771 -2.192926 1.000000 -21.566000
H 7.271016 12.072090 12.654143 6.800896 1.215733 8.003690 0.062500 10.783000
H 0.500576 13.403564 6.891669 -13.639854 -6.715847 3.858603 0.062500 10.783000
O 0.698685 13.228903 7.082173 0.312408 2.236485 1.653428 1.000000 -21.566000
H 0.670611 13.291260 7.385103 3.587405 8.692809 -3.910023 0.062500 10.783000
H 4.194840 10.370710 13.796437 4.385969 11.743165 -2.887130 0.062500 10.783000
O 4.201824 10.573533 14.037569 -3.533798 -2.482336 0.541688 1.000000 -21.566000
H 4.302409 10.393905 14.287519 5.386479 -0.030551 8.391772 0.062500 10.783000
H 3.341499 13.630941 0.936280 8.278227 -5.921261 5.876410 0.062500 10.783000
O 3.434632 13.515070 1.219010 -0.508813 1.843288 1.697096 1.000000 -21.566000
H 3.198509 13.303921 1.258960 -11.549875 5.892835 8.052869 0.062500 10.783000
H 0.380226 14.195731 0.056843 -12.590433 14.988881 3.497814 0.062500 10.783000
O 0.160442 14.141499 14.575828 -0.386884 2.344693 3.141387 1.000000 -21.566000
H 0.004652 14.386640 14.450581 0.834233 -13.339864 1.852746 0.062500 10.783000
H 12.912573 9.242854 1.064792 0.314206 -12.658230 -5.224535 0.062500 10.783000
O 12.673237 9.076353 0.937421 3.854635 2.709571 2.500553 1.000000 -21.566000
H 12.821326 8.830781 0.797082 5.910193 -1.553181 4.621002 0.062500 10.783000
H 9.095078 5.249932 12.403796 -10.125962 -2.100508 11.393209 0.062500 10.783000
O 8.854149 5.103558 12.548059 -3.341027 -3.019082 -1.273412 1.000000 -21.566000
H 8.960689 4.911836 12.774094 2.638090 8.411707 -2.016233 0.062500 10.783000
H 1.652500 13.090319 8.022118 6.996685 4.607269 4.714516 0.062500 10.783000
O 1.669020 13.357288 7.836955 -3.573289 0.616198 -1.828633 1.000000 -21.566000
H 1.958253 13.470645 7.914305 -1.275988 2.126719 7.368065 0.062500 10.783000
H 3.746241 9.499547 0.458547 -6.356997 2.586389 3.561546 0.062500 10.783000
O 3.853580 9.783761 0.551798 -0.010465 -3.021115 0.934008 1.000000 -21.566000
H 3.653329 10.037287 0.539620 1.704057 1.951292 1.618040 0.062500 10.783000
H 1.015825 11.768229 3.803445 -14.525194 -0.718346 1.988516 0.062500 10.783000
O 1.047455 12.065513 3.672032 0.383724 2.164099 -1.602276 1.000000 -21.566000
H 1.362107 12.123184 3.679424 0.362640 -0.867405 -5.307496 0.062500 10.783000
H 5.497181 14.110996 3.510927 3.506066 4.321489 -4.163986 0.062500 10.783000
O 5.776000 13.954208 3.557909 -0.062410 0.387716 1.931656 1.000000 -21.566000
H 5.727808 13.639749 3.511151 -5.298401 -1.445905 -0.489506 0.062500 10.783000
H 7.205182 11.651581 13.923289 -9.577340 1.464795 7.449078 0.062500 10.783000
O 7.258099 11.501413 14.198230 0.006026 -3.000011 1.270114 1.000000 -21.566000
H 7.468497 11.280409 14.107120 5.360941 -3.256977 5.141722 0.062500 10.783000
H 0.800375 8.801793 2.651597 -4.401608 -2.958201 -7.911067 0.062500 10.783000
O 0.505159 8.733477 2.749154 1.373369 2.692864 -1.025878 1.000000 -21.566000
H 0.383472 8.523819 2.527241 -9.978034 -5.888491 2.533366 0.062500 10.783000
H 0.575401 11.403403 1.990560 7.057083 0.314946 15.359776 0.062500 10.783000
O 0.427442 11.637324 2.146178 -0.909462 -0.360804 -2.803217 1.000000 -21.566000
H 0.577612 11.913200 2.116364 10.615893 -0.730886 2.386189 0.062500 10.783000
H 11.410995 9.140428 4.761267 7.481469 7.859137 -5.672520 0.062500 10.783000
O 11.462221 8.943637 4.522067 -1.062959 1.424694 -0.807462 1.000000 -21.566000
H 11.577167 8.658438 4.640588 -5.831491 -5.658892 1.214575 0.062500 10.783000
H 1.443175 7.098056 12.684095 0.277061 -11.082920 1.329172 0.062500 10.783000
O 1.562695 6.819710 12.592426 -2.315529 0.969987 1.564953 1.000000 -21.566000
H 1.850991 6.890559 12.438071 7.380213 7.326899 0.612109 0.062500 10.783000
H 2.183631 13.541913 1.387041 11.482424 -7.423970 9.530918 0.062500 10.783000
O 2.252791 13.236983 1.344285 2.403498 -0.340571 2.543588 1.000000 -21.566000
H 2.243189 13.157087 1.038132 -11.115620 3.405322 1.669509 0.062500 10.783000
H 7.251771 12.849600 2.143713 -16.650512 5.002370 6.602076 0.062500 10.783000
O 7.458936 12.735387 2.373969 -0.088470 -1.396607 0.302970 1.000000 -21.566000
H 7.732896 12.771288 2.201927 -7.664378 4.209163 -12.567392 0.062500 10.783000
H 10.650273 11.029443 8.413515 7.699946 -1.556418 -0.604196 0.062500 10.783000
O 10.596078 11.347622 8.407941 0.266032 0.613506 -1.960714 1.000000 -21.566000
H 10.876647 11.496925 8.411517 0.060748 18.363136 -17.573302 0.062500 10.783000
H 9.990454 11.295133 1.536697 -0.467468 0.469287 -2.590356 0.062500 10.783000
O 9.688129 11.372694 1.494826 -2.358444 0.624317 0.368222 1.000000 -21.566000
H 9.681853 11.486671 1.187998 17.883125 4.735867 0.515882 0.062500 10.783000
H 6.276669 9.145575 4.241471 1.652207 5.924780 -11.344311 0.062500 10.783000
O 6.004587 8.981499 4.172163 -1.522370 -0.965283 -1.913650 1.000000 -21.566000
H 5.757255 9.178585 4.226161 -4.298039 -7.381093 -0.798892 0.062500 10.783000
H 11.295914 12.889358 4.425673 -5.294240 -3.230652 -3.705136 0.062500 10.783000
O 11.259356 13.185410 4.561618 -1.019554 0.494493 -0.506341 1.000000 -21.566000
H 11.546667 13.340433 4.552667 0.647583 -10.065029 0.911822 0.062500 10.783000
H 7.162704 9.762544 1.023439 3.490220 14.707262 -2.983924 0.062500 10.783000
O 7.466856 9.859087 1.023991 1.337717 4.509009 -1.987842 1.000000 -21.566000
H 7.547798 10.162086 0.950894 1.105420 9.136674 9.081616 0.062500 10.783000
H 11.829755 1.495715 7.191262 -2.302550 -0.441334 16.656348 0.062500 10.783000
O 11.735587 1.528869 6.876258 1.487375 -0.648711 -0.008168 1.000000 -21.566000
H 11.734660 1.239801 6.728383 -2.084783 2.818349 9.728502 0.062500 10.783000
H 13.945768 13.601124 14.045659 11.210814 6.446697 4.681169 0.062500 10.783000
O 14.179389 13.559644 13.830588 -3.135845 -2.854447 -1.029117 1.000000 -21.566000
H 14.203588 13.815943 13.637256 2.265042 12.149191 12.959356 0.062500 10.783000
H 8.181286 12.081696 6.514946 0.118141 -1.216966 -6.507787 0.062500 10.783000
O 8.151896 12.385872 6.634107 -1.390610 2.879115 -0.065527 1.000000 -21.566000
H 7.901916 12.444109 6.808107 -1.366654 -6.639519 -0.922986 0.062500 10.783000
H 3.487659 10.208323 5.136351 6.660730 -5.848054 4.902273 0.062500 10.783000
O 3.320804 10.212147 4.858252 -0.245064 3.794435 2.917698 1.000000 -21.566000
H 3.125676 10.472635 4.855223 -13.504793 1.908416 -9.808059 0.062500 10.783000
H 6.455225 1.592501 0.179592 -1.351877 -1.757563 15.202614 0.062500 10.783000
O 6.648839 1.465300 0.386074 1.091301 2.662342 1.197269 1.000000 -21.566000
H 6.950635 1.482698 0.283913 -0.549231 5.532983 -2.298921 0.062500 10.783000
H 4.915254 14.258452 12.909374 0.884705 6.803330 -3.763440 0.062500 10.783000
O 4.657353 14.119810 12.761158 -5.375566 -1.426343 -0.343808 1.000000 -21.566000
H 4.649107 13.826455 12.895823 2.125694 -8.310516 15.761240 0.062500 10.783000
H 2.551148 12.928111 13.915121 -1.667028 -2.768952 3.696089 0.062500 10.783000
O 2.461576 12.860037 14.216363 -2.616115 -1.147601 0.779655 1.000000 -21.566000
H 2.738775 12.841696 14.384273 -3.761190 15.333360 9.530616 0.062500 10.783000
H 6.945596 11.510322 4.050236 -2.868020 -3.674024 10.324439 0.062500 10.783000
O 6.793758 11.782756 4.053466 1.799962 -1.383135 5.568006 1.000000 -21.566000
H 6.533362 11.817910 4.236488 -3.832271 12.916804 -6.261682 0.062500 10.783000
H 1.080754 12.721057 14.577285 1.048434 -0.360220 -0.663967 0.062500 10.783000
O 1.305467 12.484289 14.553817 2.215987 -0.357411 4.490292 1.000000 -21.566000
H 1.182281 12.205599 14.468808 13.827416 5.506354 1.960854 0.062500 10.783000
H 10.905206 3.206677 6.615708 10.604263 5.926850 10.632138 0.062500 10.783000
O 11.034935 2.912586 6.599811 2.583340 -2.431485 -4.906080 1.000000 -21.566000
H 10.913056 2.724803 6.825153 10.039148 -5.734330 -0.726235 0.062500 10.783000
H 9.968983 3.050513 7.214168 -10.406320 0.203160 17.299196 0.062500 10.783000
O 10.218175 2.955988 7.390820 1.976605 -3.946380 -0.797591 1.000000 -21.566000
H 10.309812 2.669107 7.311555 2.538701 -1.708112 -9.549648 0.062500 10.783000
H 13.097836 7.345937 12.054277 -2.254374 -6.270930 6.576147 0.062500 10.783000
O 13.025239 7.667137 12.047643 -0.659619 1.871668 0.180671 1.000000 -21.566000
H 13.023544 7.767664 11.750014 13.045416 -3.609657 0.739696 0.062500 10.783000
H 12.358822 10.286081 10.549048 3.462182 -6.228911 0.810621 0.062500 10.783000
O 12.450727 10.585500 10.636635 -2.898476 2.087987 -3.438802 1.000000 -21.566000
H 12.380338 10.616852 10.942246 -0.476554 10.665128 -1.071867 0.062500 10.783000
H 13.326096 5.290864 0.335766 2.835942 3.134105 7.361900 0.062500 10.783000
O 13.630844 5.223359 0.412697 -0.562433 -0.564876 0.649897 1.000000 -21.566000
H 13.634763 4.903501 0.389686 7.278093 -3.360051 -0.999483 0.062500 10.783000
H 13.231775 14.245608 14.512788 10.596740 5.260455 -14.928826 0.062500 10.783000
O 13.104555 14.496552 14.679603 0.388278 1.572796 -0.166178 1.000000 -21.566000
H 12.809643 14.416939 0.023646 -8.130168 -10.851301 7.580294 0.062500 10.783000
H 1.230559 11.987306 0.738481 5.256788 0.848857 -10.313841 0.062500 10.783000
O 0.918696 12.032590 0.786392 1.863315 -0.990047 1.348535 1.000000 -21.566000
H 0.865185 12.340307 0.900129 1.798745 -4.867645 9.276946 0.062500 10.783000
H 12.487208 14.285696 1.528885 0.680060 -20.590883 9.592860 0.062500 10.783000
O 12.296938 14.134021 1.720388 -0.970569 -1.407205 0.591024 1.000000 -21.566000
H 12.439348 14.024568 1.973497 7.581971 5.558206 -11.836463 0.062500 10.783000
H 5.655166 2.694539 13.917566 -0.623135 2.061752 4.735341 0.062500 10.783000
O 5.511521 2.396037 13.898734 -4.015654 -1.158729 4.467864 1.000000 -21.566000
H 5.682912 2.154701 13.760303 3.217189 -3.305196 6.469831 0.062500 10.783000
H 4.930232 3.108903 7.942848 9.711811 5.524279 3.737819 0.062500 10.783000
O 5.146882 3.287841 7.763769 0.761652 3.999869 -0.783946 1.000000 -21.566000
H 5.098651 3.585168 7.890774 6.997097 15.712864 9.049105 0.062500 10.783000
H 0.578372 11.689107 6.271518 -4.056683 6.271979 -13.309925 0.062500 10.783000
O 0.792128 11.705871 6.037086 -1.744550 2.473356 0.042155 1.000000 -21.566000
H 0.595986 11.778656 5.768227 -14.832108 4.618156 4.450344 0.062500 10.783000
H 9.504259 1.979508 2.108832 13.162604 -3.645200 7.389025 0.062500 10.783000
O 9.786630 1.987835 1.949684 -2.319398 2.225322 0.229743 1.000000 -21.566000
H 9.871219 1.688934 1.903658 -4.255573 -5.207693 -4.624567 0.062500 10.783000
H 4.085456 13.012224 2.649676 2.671499 1.347434 4.240397 0.062500 10.783000
O 4.398122 13.000417 2.596444 0.645401 0.617591 -2.715674 1.000000 -21.566000
H 4.583538 13.130867 2.834046 -7.384445 3.306709 0.634218 0.062500 10.783000
H 8.887285 14.410960 3.253968 -4.622859 -0.319003 -3.173486 0.062500 10.783000
O 8.786010 14.604350 3.030650 -0.240011 -0.428251 -3.479425 1.000000 -21.566000
H 8.936475 14.512497 2.762999 -10.511937 -5.830465 -10.379420 0.062500 10.783000
H 1.526988 14.353921 5.670051 -10.754369 6.115044 -5.971273 0.062500 10.783000
O 1.571532 14.149519 5.920181 0.646649 -4.383525 0.027859 1.000000 -21.566000
H 1.673185 13.860322 5.813929 5.123682 -6.314009 0.807276 0.062500 10.783000
H 8.732215 9.005131 8.630899 2.217162 4.698399 3.747948 0.062500 10.783000
O 9.000262 9.166725 8.664637 -1.543124 0.665485 -0.041040 1.000000 -21.566000
H 9.232218 8.953236 8.665634 -17.321840 -9.569682 -4.670409 0.062500 10.783000
H 14.547035 0.779915 0.664476 -3.616254 -6.691498 2.238287 0.062500 10.783000
O 14.647595 0.867045 0.947373 -0.174461 2.494131 0.110293 1.000000 -21.566000
H 14.523589 1.171796 0.978052 3.272773 -4.161711 -7.824163 0.062500 10.783000
H 7.535535 10.958950 3.847669 -1.256026 -3.802470 -15.908020 0.062500 10.783000
O 7.254800 10.844979 3.927323 1.153232 -1.139012 -1.407321 1.000000 -21.566000
H 7.316585 10.525119 3.958748 5.523069 -3.074822 6.649608 0.062500 10.783000
H 7.630470 0.423095 13.847513 8.793678 -5.050095 -3.206436 0.062500 10.783000
O 7.378114 0.442151 13.645673 -2.096443 -0.675319 -1.656319 1.000000 -21.566000
H 7.506810 0.428389 13.345979 11.150098 3.700923 4.686813 0.062500 10.783000
H 9.082166 1.123324 0.420308 -2.596685 -2.217453 0.065479 0.062500 10.783000
O 9.033206 1.430343 0.534788 0.006947 0.555785 -2.452360 1.000000 -21.566000
H 9.168236 1.636340 0.342227 -0.436873 2.894462 2.001737 0.062500 10.783000
H 11.416600 0.069507 14.736116 5.946727 5.798293 -5.336511 0.062500 10.783000
O 11.251700 0.281012 14.549337 -0.484960 -0.444392 -0.326161 1.000000 -21.566000
H 11.423246 0.548135 14.516561 11.611471 -7.417673 -1.565006 0.062500 10.783000
H 9.072865 13.127985 1.989734 4.336361 -6.103610 -16.193794 0.062500 10.783000
O 8.930488 12.847593 1.937025 2.452067 -0.396165 -1.070151 1.000000 -21.566000
H 9.022869 12.770096 1.643255 -2.626429 -13.913868 -1.661772 0.062500 10.783000
H 11.678715 10.913148 4.137958 16.094138 -15.483932 -11.406328 0.062500 10.783000
O 11.806294 10.999438 4.422460 1.139318 -1.285374 0.660192 1.000000 -21.566000
H 12.132248 10.925817 4.404063 -1.303702 3.580071 8.959748 0.062500 10.783000
H 3.589835 0.445666 2.577076 -13.950145 -2.095592 5.965870 0.062500 10.783000
O 3.686720 0.149300 2.642681 -1.020779 1.981889 -2.176385 1.000000 -21.566000
H 3.908261 0.066387 2.439844 -8.709045 -7.049561 -3.703539 0.062500 10.783000
H 7.389662 0.506772 5.889062 7.141719 6.107318 -1.069110 0.062500 10.783000
O 7.435242 0.773900 5.714602 -1.791879 1.885815 -0.172339 1.000000 -21.566000
H 7.619939 0.728726 5.472198 4.699312 7.355435 -0.053542 0.062500 10.783000
H 12.125810 12.596096 6.230603 17.290645 -8.334140 10.956775 0.062500 10.783000
O 12.190034 12.394607 5.983366 4.829567 -2.611411 1.410217 1.000000 -21.566000
H 11.945117 12.447138 5.787256 13.412761 -7.874768 8.726471 0.062500 10.783000
H 3.685801 13.633757 2.909085 4.350218 4.344000 -3.699126 0.062500 10.783000
O 3.518137 13.494309 2.677492 0.731450 0.689414 -0.589424 1.000000 -21.566000
H 3.249217 13.372325 2.812751 5.447696 -2.207786 1.266808 0.062500 10.783000
H 6.060428 0.807422 0.232513 -9.689169 3.043079 -7.308639 0.062500 10.783000
O 6.170120 0.511386 0.239445 2.653773 1.285254 1.994023 1.000000 -21.566000
H 6.313089 0.489708 0.528221 -3.426694 0.457384 0.032630 0.062500 10.783000
H 4.812943 2.154074 3.409236 10.101383 -3.380968 -17.243195 0.062500 10.783000
O 5.145341 2.141790 3.437104 5.055774 -0.288446 0.016980 1.000000 -21.566000
H 5.276348 2.177676 3.137940 15.157870 -6.260427 -1.510732 0.062500 10.783000
H 0.386950 12.467760 2.454574 -5.374334 5.747401 7.809878 0.062500 10.783000
O 0.395983 12.344082 2.751005 0.006343 0.676019 0.619669 1.000000 -21.566000
H 0.451147 12.554405 2.995407 12.549676 12.554153 8.156927 0.062500 10.783000
H 6.665472 9.019750 2.310955 8.004255 7.951671 -3.072238 0.062500 10.783000
O 6.664934 8.719457 2.174618 0.710765 3.132850 1.365257 1.000000 -21.566000
H 6.682658 8.738698 1.847394 3.963614 -5.063420 -5.565720 0.062500 10.783000
H 10.407497 0.228689 10.114247 11.134886 -2.458945 4.001597 0.062500 10.783000
O 10.362393 0.007317 10.358934 -1.263456 0.718964 -4.529046 1.000000 -21.566000
H 10.635002 14.659426 10.531026 5.822630 0.124376 -9.207057 0.062500 10.783000
H 11.452912 12.757663 14.102804 2.164912 4.747501 -9.664596 0.062500 10.783000
O 11.324568 12.991466 14.273041 -1.746651 -2.702398 3.867937 1.000000 -21.566000
H 11.171049 13.193748 14.067331 -5.982661 -3.756845 1.613811 0.062500 10.783000
H 9.998184 3.410450 4.922574 9.193622 -18.201100 -3.842931 0.062500 10.783000
O 9.925579 3.116623 5.037015 2.114513 -1.224864 1.372166 1.000000 -21.566000
H 9.931241 3.112134 5.364628 -4.810110 9.291625 2.845211 0.062500 10.783000
H 0.172284 2.412570 13.593802 3.489215 -8.671163 -12.408291 0.062500 10.783000
O 0.329621 2.393505 13.323531 0.033394 1.702374 -1.074254 1.000000 -21.566000
H 0.115136 2.291772 13.099452 -0.229503 0.110954 -1.885865 0.062500 10.783000
H 7.701088 1.693164 5.128645 15.716429 -1.219010 1.371205 0.062500 10.783000
O 7.683467 1.987356 5.251720 4.474721 2.436599 -0.279686 1.000000 -21.566000
H 7.850811 2.194849 5.083461 -1.315418 -5.486129 7.566277 0.062500 10.783000
H 6.048608 1.996943 5.156653 3.686492 8.109686 -7.309488 0.062500 10.783000
O 5.867989 1.884693 4.902095 -0.684920 2.053937 -1.448694 1.000000 -21.566000
H 5.560635 1.985778 4.874318 8.648038 -7.316215 -9.280628 0.062500 10.783000
H 0.163768 7.928925 2.621315 -0.178536 -7.310280 5.950175 0.062500 10.783000
O 0.193445 8.059676 2.327878 -1.387200 -1.925036 2.880985 1.000000 -21.566000
H 14.661025 8.004099 2.182104 -3.033682 6.022413 2.134322 0.062500 10.783000
H 14.072505 2.568614 5.716169 -4.291077 -10.557898 6.607722 0.062500 10.783000
O 14.203435 2.859957 5.637624 0.212539 -2.795373 -1.163391 1.000000 -21.566000
H 14.279385 2.862475 5.321538 -7.025568 -26.831478 -2.067282 0.062500 10.783000
H 2.248262 3.485731 0.995876 1.392957 6.794312 2.899339 0.062500 10.783000
O 2.061624 3.488856 0.732088 -0.119095 0.638875 0.044338 1.000000 -21.566000
H 2.062691 3.200411 0.594557 10.157208 3.570257 -0.779750 0.062500 10.783000
H 2.347932 9.053583 3.192846 -12.805851 1.210112 -5.826805 0.062500 10.783000
O 2.222739 9.344543 3.110552 1.332811 0.300419 -2.279881 1.000000 -21.566000
H 1.909533 9.363797 3.155904 -8.535111 -12.082667 12.317261 0.062500 10.783000
H 9.720023 12.644414 9.263501 -13.887741 1.995727 0.966856 0.062500 10.783000
O 9.929686 12.882789 9.258524 0.913466 0.595656 0.021669 1.000000 -21.566000
H 10.085185 12.833702 8.986988 0.715274 0.820819 4.109089 0.062500 10.783000
H 4.124741 3.933561 2.327659 -15.933308 13.380617 -8.237288 0.062500 10.783000
O 4.399737 4.087280 2.356378 3.573710 -4.662543 2.367264 1.000000 -21.566000
H 4.360600 4.363403 2.520922 2.774689 -9.576500 11.223706 0.062500 10.783000
H 9.943095 8.632374 2.767457 -5.659069 -1.924538 -12.776743 0.062500 10.783000
O 9.849374 8.339647 2.856696 2.072451 0.897373 0.532663 1.000000 -21.566000
H 9.892902 8.146034 2.604584 -2.755336 -8.974999 7.785742 0.062500 10.783000
H 3.930447 1.084556 4.488372 2.573302 3.795414 -3.934745 0.062500 10.783000
O 4.163528 1.147634 4.679369 0.428495 -2.530808 -2.793428 1.000000 -21.566000
H 4.048874 1.288825 4.941234 -3.853743 9.760728 -7.938742 0.062500 10.783000
H 4.219384 1.771621 3.102519 1.255635 -6.625581 14.674340 0.062500 10.783000
O 4.150488 1.572067 2.854159 -3.479668 -2.115815 -2.165804 1.000000 -21.566000
H 4.447551 1.482209 2.754208 1.889470 3.750235 6.441225 0.062500 10.783000
H 1.116844 3.503118 2.718544 -6.870689 -0.700478 -1.609279 0.062500 10.783000
O 1.366313 3.367917 2.565512 -0.087187 0.618056 -0.634860 1.000000 -21.566000
H 1.647281 3.476864 2.668903 4.650745 1.611745 3.952394 0.062500 10.783000
H 4.464780 2.707169 8.382531 2.497664 7.541142 8.255440 0.062500 10.783000
O 4.611183 2.794252 8.103775 -1.362600 -2.362462 -1.763006 1.000000 -21.566000
H 4.544907 2.522462 7.933109 3.093078 0.062756 6.138126 0.062500 10.783000
H 1.969365 1.526608 14.262216 -3.125554 3.185507 -0.116949 0.062500 10.783000
O 2.114999 1.516422 14.548954 -0.328630 0.855418 -1.196077 1.000000 -21.566000
H 2.413104 1.562984 14.470477 -2.576715 -4.545390 -8.040059 0.062500 10.783000
H 12.043020 5.609146 1.875345 0.976806 0.256778 5.199729 0.062500 10.783000
O 12.302210 5.643320 1.682334 0.746850 -0.776740 -1.263990 1.000000 -21.566000
H 12.221567 5.657007 1.363614 5.398088 6.160679 -9.377720 0.062500 10.783000
H 11.078578 13.600800 3.710789 7.294196 5.333814 -1.500744 0.062500 10.783000
O 10.773256 13.691325 3.748139 3.317307 1.013296 -3.632785 1.000000 -21.566000
H 10.798975 13.887402 3.998832 -4.774687 -0.197833 -5.031197 0.062500 10.783000
H 1.756701 12.094234 2.777648 18.905830 -4.971274 -1.216498 0.062500 10.783000
O 1.884747 12.255342 2.535865 -0.695766 -1.094794 -1.713516 1.000000 -21.566000
H 1.885410 12.582696 2.583569 8.792428 4.636509 3.112342 0.062500 10.783000
H 12.631927 0.241721 4.212673 -1.204704 -8.868016 1.366576 0.062500 10.783000
O 12.910914 0.208465 4.384724 1.437633 2.638165 3.691747 1.000000 -21.566000
H 13.066353 0.473804 4.387003 4.607476 -8.300680 -0.025181 0.062500 10.783000
H 14.549692 8.043663 3.411562 -6.732552 -5.507818 6.002664 0.062500 10.783000
O 14.433215 8.297658 3.561546 0.057099 1.767286 0.414738 1.000000 -21.566000
H 14.157179 8.162476 3.657076 -9.263538 -3.016087 -1.869130 0.062500 10.783000
H 6.867221 4.917278 2.104238 3.565821 -14.099945 9.898031 0.062500 10.783000
O 6.986678 5.147929 2.289202 -1.032018 2.887812 2.752608 1.000000 -21.566000
H 7.295292 5.052217 2.359140 5.808209 9.953594 1.563597 0.062500 10.783000
H 3.810652 3.000547 10.721931 -10.358429 14.984231 3.767738 0.062500 10.783000
O 3.506501 2.987391 10.648261 4.198297 0.805352 -1.950758 1.000000 -21.566000
H 3.439584 2.917688 10.342123 4.026326 4.817233 -2.461187 0.062500 10.783000
H 6.636753 9.251709 0.139203 -9.876917 3.019070 3.955683 0.062500 10.783000
O 6.549571 9.540238 0.229188 0.309399 -4.357875 0.015985 1.000000 -21.566000
H 6.262937 9.575118 0.082165 -0.420485 -3.532690 -4.961207 0.062500 10.783000
H 10.627754 14.093228 14.472723 1.176907 -12.775223 -3.136936 0.062500 10.783000
O 10.903472 14.167521 14.327631 1.091017 -2.273553 2.140383 1.000000 -21.566000
H 11.025611 14.445658 14.392644 15.292408 1.088967 -3.229620 0.062500 10.783000
H 3.711589 5.223394 14.179217 4.344853 2.508971 6.405840 0.062500 10.783000
O 3.851004 4.973173 14.043431 1.936943 -0.241616 -0.711567 1.000000 -21.566000
H 3.836697 5.035113 13.727266 -2.717987 -5.370787 -5.462470 0.062500 10.783000
H 9.783607 0.818925 1.608874 -0.503002 -0.147394 5.255398 0.062500 10.783000
O 9.961849 1.076334 1.673592 -2.711360 -0.348911 -3.251172 1.000000 -21.566000
H 10.225316 0.996031 1.858333 7.283957 -4.195375 1.906393 0.062500 10.783000
H 8.620690 0.387246 3.155068 -5.664872 -5.649049 -2.465899 0.062500 10.783000
O 8.665703 0.647945 3.354404 -2.286036 -3.897950 1.229309 1.000000 -21.566000
H 8.826599 0.500485 3.574820 7.503659 -12.356632 -11.781070 0.062500 10.783000
H 7.550021 0.204963 1.655982 6.628859 -9.383623 -2.992738 0.062500 10.783000
O 7.535359 0.493451 1.807422 0.594733 2.614995 2.409781 1.000000 -21.566000
H 7.254542 0.616188 1.693143 9.796983 9.798617 1.239853 0.062500 10.783000
H 7.411420 1.349707 11.359134 7.054583 -3.048447 -11.441003 0.062500 10.783000
O 7.112810 1.430071 11.319860 -0.897389 0.569330 3.369187 1.000000 -21.566000
H 6.976197 1.244267 11.535993 15.154115 2.069903 -7.816276 0.062500 10.783000
H 5.723313 1.542348 7.448004 12.680984 3.740480 0.820558 0.062500 10.783000
O 5.591785 1.266528 7.553676 -0.367630 2.148049 1.629762 1.000000 -21.566000
H 5.609584 1.030383 7.346627 3.608231 14.952979 -4.639484 0.062500 10.783000
H 8.879256 8.275747 1.385175 -6.282896 -1.850799 -4.413632 0.062500 10.783000
O 9.206287 8.312267 1.327053 0.440899 1.765284 -3.789891 1.000000 -21.566000
H 9.300963 8.597048 1.435529 -1.599403 20.596925 -7.941575 0.062500 10.783000
H 1.474639 7.961239 4.527875 6.733395 6.185006 -8.326685 0.062500 10.783000
O 1.614961 7.706534 4.667582 0.133620 -3.661359 -0.402407 1.000000 -21.566000
H 1.587287 7.451490 4.456620 -4.224267 -5.065871 -8.072332 0.062500 10.783000
H 10.678165 3.618684 3.151024 8.340434 12.730637 -3.323076 0.062500 10.783000
O 10.652862 3.775603 2.881993 -2.411756 0.154994 2.092636 1.000000 -21.566000
H 10.948740 3.776616 2.753696 -4.669356 2.147981 0.613423 0.062500 10.783000
H 0.024476 14.418537 8.390486 -9.158951 4.132588 2.103242 0.062500 10.783000
O 0.071574 14.387876 8.703002 4.719164 0.386410 -0.431264 1.000000 -21.566000
H 14.585793 14.251001 8.874069 2.751775 -2.631572 -9.759463 0.062500 10.783000
H 2.885304 14.246287 1.361127 -6.412635 -5.089753 4.430541 0.062500 10.783000
O 2.886025 14.392973 1.641288 1.173117 3.599084 -0.385238 1.000000 -21.566000
H 3.165110 14.561713 1.659422 -4.616445 7.905226 11.218728 0.062500 10.783000
H 6.720652 0.868205 2.484337 5.116366 -2.622495 -3.210936 0.062500 10.783000
O 6.485334 0.660948 2.500832 0.390473 0.047672 -1.868515 1.000000 -21.566000
H 6.594251 0.369256 2.497459 -5.867344 -6.628193 9.535070 0.062500 10.783000
H 2.451170 3.930394 13.002621 12.043124 -4.362353 -10.093313 0.062500 10.783000
O 2.596275 4.146875 13.180338 -3.293680 0.959863 0.898871 1.000000 -21.566000
H 2.730509 3.998313 13.434648 -13.364716 3.939003 -0.877472 0.062500 10.783000
H 6.674118 13.698181 13.350157 -4.812512 2.108340 7.821179 0.062500 10.783000
O 6.383081 13.713820 13.198760 -1.075200 1.785012 1.274152 1.000000 -21.566000
H 6.164701 13.677158 13.437806 -6.882389 -11.170350 -12.056525 0.062500 10.783000
H 4.536584 3.271943 13.641652 18.247148 0.768734 1.485274 0.062500 10.783000
O 4.751964 3.361345 13.426253 -2.977503 -2.289308 -1.554943 1.000000 -21.566000
H 4.670431 3.620284 13.247366 3.722509 -5.501746 -12.094478 0.062500 10.783000
H 11.476770 8.154346 13.089806 -2.303111 1.558726 -2.199612 0.062500 10.783000
O 11.210045 8.185931 13.266651 0.005606 0.205264 0.292042 1.000000 -21.566000
H 10.963633 8.242931 13.072691 -7.114745 -10.998867 -4.183793 0.062500 10.783000
H 2.215565 6.441432 5.798282 -12.935416 12.191205 7.320775 0.062500 10.783000
O 1.988267 6.427267 6.029479 1.615808 1.602827 2.643223 1.000000 -21.566000
H 2.110311 6.477464 6.321291 -2.762268 3.283898 1.726364 0.062500 10.783000
H 3.964751 6.142606 2.320831 10.773728 5.891565 4.873636 0.062500 10.783000
O 3.658276 6.016272 2.377356 -0.859803 0.941964 1.067432 1.000000 -21.566000
H 3.585528 5.844612 2.115146 -8.539486 -1.994068 1.953491 0.062500 10.783000
H 11.013451 7.847360 13.757448 3.024606 -1.816349 1.924405 0.062500 10.783000
O 10.886857 7.658717 13.986264 -0.467713 -2.776044 1.335999 1.000000 -21.566000
H 10.646490 7.788490 14.154243 -7.863079 -6.255764 -5.624432 0.062500 10.783000
H 12.293784 0.082420 12.619684 -5.631249 2.990559 8.345388 0.062500 10.783000
O 12.594250 14.694538 12.592888 0.909399 -0.452629 -0.527271 1.000000 -21.566000
H 12.559804 14.395430 12.476111 -6.169015 -1.946552 -7.448743 0.062500 10.783000
H 11.084892 13.431454 12.314926 -1.735192 14.270136 5.432546 0.062500 10.783000
O 11.180625 13.668406 12.509954 -1.680865 5.712852 3.578482 1.000000 -21.566000
H 11.489046 13.696632 12.440439 -7.709873 15.472264 -8.608775 0.062500 10.783000
H 9.082387 0.634741 13.516946 -7.247357 3.297449 15.478383 0.062500 10.783000
O 9.287878 0.845219 13.636882 -1.972535 0.062882 -1.868981 1.000000 -21.566000
H 9.433867 0.942581 13.371379 8.689260 -4.814391 1.048348 0.062500 10.783000
H 4.675877 9.006728 11.209062 15.944923 -14.119096 6.808508 0.062500 10.783000
O 4.586425 8.947661 11.510052 0.443281 -1.776057 -1.349689 1.000000 -21.566000
H 4.760213 8.711980 11.633401 -12.079803 -12.707039 3.849849 0.062500 10.783000
H 14.533290 3.760227 14.073467 9.095768 8.970750 -3.459028 0.062500 10.783000
O 14.736110 3.728971 14.317462 1.881562 2.133156 -0.420813 1.000000 -21.566000
H 0.252402 3.910655 14.243987 0.866578 -2.493362 5.400708 0.062500 10.783000
H 1.173309 7.742772 1.450153 -6.459789 5.251622 3.547733 0.062500 10.783000
O 1.392622 7.509782 1.395997 0.352834 0.414506 -0.157633 1.000000 -21.566000
H 1.470398 7.461720 1.091847 -11.934401 4.470540 -4.043554 0.062500 10.783000
H 2.335553 2.706455 8.329674 7.210278 3.304056 -1.019333 0.062500 10.783000
O 2.093285 2.503442 8.328888 1.165339 -3.160932 -1.413489 1.000000 -21.566000
H 2.099672 2.317740 8.589644 6.221889 -5.238219 -3.690335 0.062500 10.783000
H 14.349869 12.500542 2.580226 5.475429 -4.073358 5.723469 0.062500 10.783000
O 14.242151 12.711047 2.789815 -1.504115 3.490808 1.232868 1.000000 -21.566000
H 14.289131 12.603983 3.090133 -8.708535 -12.283858 -2.531346 0.062500 10.783000
H 10.217136 10.893852 0.241393 3.618094 -0.920792 4.386251 0.062500 10.783000
O 10.127034 10.969288 14.683332 3.265540 0.719454 1.022531 1.000000 -21.566000
H 10.100768 11.288468 14.682908 -2.392534 -1.258980 15.373306 0.062500 10.783000
H 6.890912 2.825826 0.333398 11.920052 1.563958 9.435285 0.062500 10.783000
O 6.836796 2.521051 0.399538 1.410245 2.410507 -0.206101 1.000000 -21.566000
H 7.031804 2.307881 0.276065 -9.851030 12.122644 1.946127 0.062500 10.783000
H 4.194648 3.873102 1.127899 1.400415 -0.380518 4.794866 0.062500 10.783000
O 4.335033 3.660837 0.924298 2.086248 3.511778 1.930813 1.000000 -21.566000
H 4.602779 3.784306 0.829006 -11.920202 14.189637 -0.023953 0.062500 10.783000
H 8.652095 2.958950 2.758129 -6.290199 -5.877715 0.676424 0.062500 10.783000
O 8.475011 3.157048 2.576064 -1.777418 1.089648 -2.054039 1.000000 -21.566000
H 8.206761 2.976494 2.538011 -2.347003 8.008894 -0.484759 0.062500 10.783000
H 9.134618 1.742315 2.621074 -18.104833 -10.930046 15.919935 0.062500 10.783000
O 9.101187 1.971753 2.402146 2.116272 2.615130 1.036320 1.000000 -21.566000
H 8.798944 2.015373 2.311097 9.527353 -14.389945 -15.584110 0.062500 10.783000
H 6.142020 5.926454 13.637489 15.134562 16.611318 6.599202 0.062500 10.783000
O 5.887762 5.937032 13.826088 -1.423524 4.292448 -3.000796 1.000000 -21.566000
H 5.865063 5.633382 13.930946 -1.400830 3.473123 12.441157 0.062500 10.783000
H 10.358866 8.130086 0.674023 6.661881 -4.134821 2.336588 0.062500 10.783000
O 10.667874 8.041423 0.585246 -0.051366 -3.791030 0.655339 1.000000 -21.566000
H 10.645903 7.736898 0.485796 2.177197 -5.274454 -25.954922 0.062500 10.783000
H 12.222016 1.235843 9.289588 -2.089338 -13.304372 -4.432273 0.062500 10.783000
O 12.217976 0.968261 9.467174 2.434970 0.950614 2.367478 1.000000 -21.566000
H 12.237948 0.716406 9.268509 0.452905 -5.224389 -14.717511 0.062500 10.783000
H 12.232877 4.816362 3.184625 0.553754 9.286087 7.415397 0.062500 10.783000
O 12.311139 4.827314 2.866426 0.402951 -0.959704 0.944134 1.000000 -21.566000
H 12.204191 4.539154 2.793096 1.639599 -3.806495 -2.662960 0.062500 10.783000
H 12.690160 1.288559 12.656924 9.379703 -3.130761 -6.232428 0.062500 10.783000
O 12.477646 1.173715 12.432627 -1.615118 -1.197060 2.664121 1.000000 -21.566000
H 12.607009 0.964945 12.224341 -8.688539 10.601245 -2.580975 0.062500 10.783000
H 14.228685 4.466981 11.854185 -11.853519 -2.761055 -3.686507 0.062500 10.783000
O 14.113560 4.588332 12.121899 -4.753212 2.059270 -2.553770 1.000000 -21.566000
H 14.265105 4.512940 12.397313 1.649812 7.958192 11.947054 0.062500 10.783000
H 10.523103 2.871838 3.343819 -7.066019 -6.594961 10.169934 0.062500 10.783000
O 10.702466 2.620300 3.407134 -1.852444 -2.246262 -2.572304 1.000000 -21.566000
H 10.962697 2.593509 3.222472 9.565513 3.183743 -13.171120 0.062500 10.783000
H 12.192361 2.946415 12.455839 1.299668 7.731086 1.932968 0.062500 10.783000
O 12.079716 2.657968 12.367936 -1.590902 -3.131083 -0.296217 1.000000 -21.566000
H 12.097639 2.489258 12.646528 4.132349 -5.160624 2.037587 0.062500 10.783000
H 11.759697 6.876526 0.446559 4.823906 -26.590878 11.587930 0.062500 10.783000
O 12.048821 6.799712 0.346053 -1.105669 0.835928 -2.637028 1.000000 -21.566000
H 12.140256 6.962072 0.067563 4.158481 2.036073 16.220967 0.062500 10.783000
H 14.126700 6.059384 0.115392 14.247176 3.273159 5.623812 0.062500 10.783000
O 14.234459 5.790596 0.255347 -1.640553 -0.058903 1.242695 1.000000 -21.566000
H 14.000977 5.564277 0.229930 0.507552 8.325707 0.622559 0.062500 10.783000
H 2.185801 0.063210 9.332830 5.724921 3.296411 -5.131162 0.062500 10.783000
O 2.286278 14.664124 9.081548 -1.161174 -4.087547 -2.149584 1.000000 -21.566000
H 2.393029 14.388285 9.197967 8.902798 6.743667 -3.975918 0.062500 10.783000
H 4.785492 4.959599 5.285537 6.980166 1.580902 -3.767797 0.062500 10.783000
O 5.027845 4.766057 5.268269 3.396922 0.437056 -0.203178 1.000000 -21.566000
H 5.216270 4.805404 5.531933 3.475830 1.981153 2.610629 0.062500 10.783000
H 14.360445 8.784767 2.883021 3.938099 -5.046709 -0.183521 0.062500 10.783000
O 14.149883 8.834057 2.648301 0.721123 0.706133 2.350384 1.000000 -21.566000
H 14.084606 8.525982 2.597401 5.668537 -10.469036 8.256662 0.062500 10.783000
H 9.719080 6.463624 13.761481 -9.314546 1.875855 -2.599526 0.062500 10.783000
O 9.512331 6.526449 13.527957 0.398701 5.426048 0.295433 1.000000 -21.566000
H 9.213970 6.484272 13.605318 -2.801334 13.324276 -2.082317 0.062500 10.783000
H 1.663793 11.635921 13.236631 1.460805 19.140026 -12.980063 0.062500 10.783000
O 1.843895 11.741791 13.481809 -0.257443 2.220156 4.805897 1.000000 -21.566000
H 1.786190 12.048702 13.542797 5.008668 4.474371 -1.014741 0.062500 10.783000
H 11.173265 12.711819 13.037082 1.455443 3.645942 1.382726 0.062500 10.783000
O 11.299171 12.801474 13.324206 -1.004897 -1.717351 3.255318 1.000000 -21.566000
H 11.176319 13.075694 13.427923 -8.656615 -9.286646 -0.088721 0.062500 10.783000
H 6.627008 8.985891 12.264368 2.945973 -1.710392 12.043390 0.062500 10.783000
O 6.819955 9.188600 12.421965 -0.304272 -3.546625 -1.317016 1.000000 -21.566000
H 7.127140 9.085643 12.373295 -1.961281 5.067115 -9.852043 0.062500 10.783000
H 9.099415 13.431039 14.392280 -2.013125 13.560774 4.358831 0.062500 10.783000
O 8.917941 13.600528 14.590423 -0.404852 2.351067 -2.950194 1.000000 -21.566000
H 8.659116 13.676047 14.418601 2.362303 1.188951 -2.873227 0.062500 10.783000
H 12.878445 6.604230 13.581185 -1.880115 9.105126 1.379709 0.062500 10.783000
O 12.827479 6.677463 13.892246 -1.013621 1.440377 -0.127590 1.000000 -21.566000
H 12.998725 6.499876 14.089380 2.864629 -0.283384 0.696983 0.062500 10.783000
H 13.641872 1.533104 14.600753 0.589636 -4.230316 -4.133445 0.062500 10.783000
O 13.831958 1.264389 14.583848 0.173957 -0.679776 -2.734767 1.000000 -21.566000
H 13.635330 1.012859 14.631494 3.092373 -3.858791 7.547015 0.062500 10.783000
H 10.368087 10.617241 1.030224 13.500890 2.244980 -11.148551 0.062500 10.783000
O 10.366047 10.849422 0.807676 -1.998550 2.467125 -3.035065 1.000000 -21.566000
H 10.648033 10.995615 0.835713 -2.923384 -1.760742 6.334002 0.062500 10.783000
H 6.109611 4.637358 1.497402 -7.656113 1.809396 -10.825627 0.062500 10.783000
O 5.775472 4.589601 1.496338 -1.193742 1.969599 1.831173 1.000000 -21.566000
H 5.696078 4.289135 1.569409 5.138700 3.351629 -7.007588 0.062500 10.783000
H 10.970167 4.188862 0.719701 -0.582156 11.327193 -3.675585 0.062500 10.783000
O 11.028837 4.318810 0.440279 0.354974 -0.982125 1.535246 1.000000 -21.566000
H 10.821254 4.156919 0.250116 3.141156 8.404905 -11.916397 0.062500 10.783000
H 13.627323 6.141319 1.368331 4.804880 -0.783166 -9.001838 0.062500 10.783000
O 13.555834 6.408144 1.532546 -0.338606 -1.267089 -2.978616 1.000000 -21.566000
H 13.249165 6.435934 1.615266 -2.175311 8.841747 0.395399 0.062500 10.783000
H 13.520182 3.646956 0.583641 -6.945261 -5.375700 2.872273 0.062500 10.783000
O 13.767772 3.702063 0.778791 -0.769435 1.449341 -0.788469 1.000000 -21.566000
H 13.649830 3.982602 0.858552 -1.371761 -1.222995 4.682956 0.062500 10.783000
H 12.465740 5.407158 0.044317 -6.648917 4.045031 4.675241 0.062500 10.783000
O 12.779117 5.367157 0.008840 0.850262 2.462853 2.465864 1.000000 -21.566000
H 12.944378 5.637183 14.691551 0.229459 -3.752315 -12.221706 0.062500 10.783000
H 11.433632 10.982487 9.071515 2.975460 6.704506 3.445630 0.062500 10.783000
O 11.400829 10.972994 9.390398 1.825086 0.349137 -0.746325 1.000000 -21.566000
H 11.181140 11.202917 9.425028 -0.505567 5.641650 9.968796 0.062500 10.783000
H 3.684176 13.886232 3.666052 2.034580 -9.127397 -8.770734 0.062500 10.783000
O 3.901680 13.727741 3.482396 -2.935039 0.098906 -2.861843 1.000000 -21.566000
H 3.889165 13.418686 3.549632 5.587050 3.153734 14.751007 0.062500 10.783000
H 0.623243 0.703702 13.237968 -4.877948 10.377778 -9.658006 0.062500 10.783000
O 0.850815 0.606409 13.038441 -0.721388 -0.104644 -2.611616 1.000000 -21.566000
H 1.050495 0.831438 12.961139 3.527479 19.213552 6.130396 0.062500 10.783000
H 14.404368 10.852126 1.150054 2.791358 7.118722 -7.231534 0.062500 10.783000
O 14.563686 11.022311 1.380898 0.495432 1.410730 2.197926 1.000000 -21.566000
H 14.469112 11.329386 1.350776 1.307706 -5.002441 1.902682 0.062500 10.783000
H 5.507853 5.434007 14.551357 -5.109044 -1.238628 1.320446 0.062500 10.783000
O 5.553717 5.251860 14.294535 0.562543 1.491561 0.267360 1.000000 -21.566000
H 5.737988 4.976294 14.372751 -8.573497 -2.566771 -17.359396 0.062500 10.783000
H 3.265800 7.282060 5.044601 3.393655 5.859753 -7.546622 0.062500 10.783000
O 3.223894 7.458991 4.793307 1.112889 -1.694289 -0.961827 1.000000 -21.566000
H 3.076295 7.729910 4.861111 7.184588 -2.821203 -0.030494 0.062500 10.783000
H 13.256246 8.675917 13.904570 -6.665669 -10.746594 -7.493111 0.062500 10.783000
O 13.465998 8.601801 14.126803 0.063890 2.789160 -5.052204 1.000000 -21.566000
H 13.534956 8.892893 14.238528 -12.249138 -7.364325 -1.860749 0.062500 10.783000
H 10.631271 12.196112 13.572173 -16.339146 -0.573491 -4.488375 0.062500 10.783000
O 10.441835 12.214448 13.824578 -2.278713 -0.394576 -0.012087 1.000000 -21.566000
H 10.138351 12.162350 13.738223 11.659196 -12.901302 -8.708106 0.062500 10.783000
H 7.735168 14.255064 14.024874 6.922605 -1.762587 0.608470 0.062500 10.783000
O 7.998704 14.063255 14.066286 1.816417 -0.124999 -5.527371 1.000000 -21.566000
H 8.222756 14.255496 13.961832 -19.156350 8.361354 8.099488 0.062500 10.783000
H 14.004365 11.247174 3.525053 8.162799 3.700898 -2.942260 0.062500 10.783000
O 13.685719 11.353774 3.555002 -1.281928 -0.366909 -0.494541 1.000000 -21.566000
H 13.661166 11.446119 3.860998 0.547387 7.602636 -3.080603 0.062500 10.783000
H 12.889667 5.532386 1.755618 7.997977 -0.986995 0.107055 0.062500 10.783000
O 13.166753 5.575132 1.908589 2.150822 -0.244198 0.094716 1.000000 -21.566000
H 13.390725 5.589851 1.688942 -6.306747 -1.408849 5.921627 0.062500 10.783000
H 10.349296 6.328873 2.294760 -3.151628 13.104181 -3.737884 0.062500 10.783000
O 10.507248 6.229345 2.031307 0.001819 -1.459045 3.370046 1.000000 -21.566000
H 10.586132 6.517646 1.899147 -6.871491 -0.821777 6.956734 0.062500 10.783000
H 12.128868 8.736806 1.740932 -4.753076 -9.370963 19.271649 0.062500 10.783000
O 12.296884 8.532542 1.568225 -2.289102 1.600414 -0.800645 1.000000 -21.566000
H 12.351414 8.660760 1.281733 -6.848061 2.398214 -8.210781 0.062500 10.783000
H 8.006735 5.429485 3.303546 7.810365 4.757014 12.410732 0.062500 10.783000
O 8.033888 5.580490 3.002931 -3.745093 2.034541 2.787949 1.000000 -21.566000
H 8.078351 5.894097 3.052219 -13.900534 6.630414 -8.779860 0.062500 10.783000
H 1.658135 8.699543 4.499059 -6.205375 -0.915088 -5.010943 0.062500 10.783000
O 1.432739 8.540880 4.333336 -1.391312 0.562637 -1.073302 1.000000 -21.566000
H 1.200343 8.772111 4.283464 -3.202787 2.545629 4.877338 0.062500 10.783000
H 14.643445 2.973427 0.434006 -3.336106 6.704141 2.359696 0.062500 10.783000
O 0.026297 2.681945 0.471223 -0.135629 2.068485 0.318105 1.000000 -21.566000
H 0.269840 2.682170 0.694526 -9.797655 9.796667 2.270959 0.062500 10.783000
H 8.033610 3.706792 14.463982 8.014733 -4.278160 8.972630 0.062500 10.783000
O 7.815144 3.512681 14.369889 1.735657 4.329602 -0.359766 1.000000 -21.566000
H 7.852866 3.514964 14.055333 -3.156038 5.338366 4.994183 0.062500 10.783000
H 2.524702 13.387437 6.722981 8.981657 6.464551 -4.007300 0.062500 10.783000
O 2.342061 13.200138 6.928718 -0.229738 -0.658248 2.367773 1.000000 -21.566000
H 2.032251 13.212364 6.884437 -4.082346 14.861209 -0.387996 0.062500 10.783000
H 13.031413 0.623543 14.273037 -12.322022 -16.321857 7.829505 0.062500 10.783000
O 12.762417 0.709656 14.115116 -3.787896 0.190948 -0.366867 1.000000 -21.566000
H 12.706466 0.500065 13.875521 -0.412518 -3.515434 -1.202229 0.062500 10.783000
H 12.291759 6.992565 2.615572 -2.434187 -1.807211 6.884666 0.062500 10.783000
O 12.040087 7.118423 2.773392 -1.371524 0.535432 -1.043877 1.000000 -21.566000
H 11.850637 6.874863 2.894188 -11.864463 -2.867874 -11.449731 0.062500 10.783000
H 9.161648 5.734267 3.321610 -7.595613 12.118180 6.436106 0.062500 10.783000
O 8.854578 5.765407 3.398363 1.160824 3.364617 0.025437 1.000000 -21.566000
H 8.656553 5.679707 3.150727 -2.212551 -11.567024 -3.747396 0.062500 10.783000
H 8.028099 6.242024 12.604173 1.579655 7.485620 -11.472185 0.062500 10.783000
O 8.029123 6.287399 12.924125 3.312520 -0.001833 -0.924907 1.000000 -21.566000
H 8.299201 6.147777 13.014852 13.166109 11.126037 8.021231 0.062500 10.783000
H 11.782852 8.853141 2.290069 5.549514 -3.118554 0.113748 0.062500 10.783000
O 11.954125 8.613684 2.411969 0.637137 0.656519 -0.793152 1.000000 -21.566000
H 12.192025 8.737362 2.587270 -9.971438 -10.060675 -7.687609 0.062500 10.783000
H 0.636000 8.310620 1.516914 0.617136 -3.963780 -7.157793 0.062500 10.783000
O 0.771850 8.120486 1.727537 0.367130 1.225454 2.973040 1.000000 -21.566000
H 0.612093 8.080095 2.010945 5.451863 -11.581747 -3.515916 0.062500 10.783000
H 12.643129 5.002561 5.299588 0.433262 -9.620547 -0.125033 0.062500 10.783000
O 12.325348 4.980377 5.257521 -1.171818 4.741964 -0.094194 1.000000 -21.566000
H 12.252142 4.858823 5.540785 -5.370495 3.389144 -9.130694 0.062500 10.783000
H 5.184491 12.778310 10.469690 5.328446 -0.739826 -4.413824 0.062500 10.783000
O 5.128184 12.514116 10.661322 0.710190 2.285107 -3.585981 1.000000 -21.566000
H 4.882355 12.345505 10.550735 -11.434855 7.985629 9.381737 0.062500 10.783000
H 0.851416 8.576747 12.707254 3.188469 6.781570 -9.501000 0.062500 10.783000
O 0.987473 8.420646 12.450749 -0.419081 1.657116 -0.109248 1.000000 -21.566000
H 0.755601 8.265015 12.292480 17.449630 -12.995891 -1.850946 0.062500 10.783000
H 11.694580 11.708052 5.151716 1.936899 -3.683429 -22.423257 0.062500 10.783000
O 11.419800 11.537914 5.181377 -2.069293 -0.125867 0.293040 1.000000 -21.566000
H 11.299792 11.476837 4.896614 12.201996 14.814742 8.894366 0.062500 10.783000
H 2.678005 12.604490 3.872782 -5.309418 -8.955345 4.050054 0.062500 10.783000
O 2.396917 12.494974 3.977746 -2.935975 1.525862 -0.467652 1.000000 -21.566000
H 2.159176 12.714020 3.991712 -1.578859 -1.482025 -23.848187 0.062500 10.783000
H 0.387068 9.012484 11.411897 -6.461178 17.600044 11.172393 0.062500 10.783000
O 0.124165 8.877969 11.537090 4.638329 -4.619405 -1.102723 1.000000 -21.566000
H 14.633296 8.889198 11.304470 0.338979 17.035923 -8.600403 0.062500 10.783000
H 13.829114 8.189135 14.008661 4.240260 -1.211914 -5.144882 0.062500 10.783000
O 14.037739 7.943181 14.003381 2.333637 -0.596786 0.141338 1.000000 -21.566000
H 14.298044 8.029977 14.177119 11.817835 6.550959 11.404484 0.062500 10.783000
H 8.769138 10.964862 5.713890 -0.480217 -3.877843 -3.959428 0.062500 10.783000
O 8.725336 10.970666 6.033873 -1.669392 2.824391 -0.445747 1.000000 -21.566000
H 8.952131 10.773239 6.146976 -0.661470 9.096180 4.015018 0.062500 10.783000
H 6.568945 5.242827 13.281294 -1.093327 1.290598 4.245475 0.062500 10.783000
O 6.685421 5.413553 13.031960 -1.003382 4.807838 -2.021913 1.000000 -21.566000
H 6.442091 5.457946 12.814397 -4.729122 0.330462 -6.310075 0.062500 10.783000
H 4.565080 9.439390 1.361042 -2.988775 -7.788000 -0.755746 0.062500 10.783000
O 4.665502 9.686907 1.206834 -2.733273 0.602243 -3.870607 1.000000 -21.566000
H 4.589909 9.685457 0.895576 -14.268582 12.470690 1.931074 0.062500 10.783000
H 8.227448 11.857206 3.048264 -3.942947 2.424518 4.435895 0.062500 10.783000
O 8.335353 11.668048 3.285712 0.492934 1.766650 1.305662 1.000000 -21.566000
H 8.437791 11.394613 3.161271 1.587167 -0.473805 -17.047133 0.062500 10.783000
H 6.998165 10.666357 3.111306 -11.859292 -2.680337 -6.048078 0.062500 10.783000
O 7.000521 10.653919 2.791008 -0.227419 -0.623738 -3.357332 1.000000 -21.566000
H 6.839731 10.904531 2.666427 -6.877577 -5.281146 0.694573 0.062500 10.783000
H 8.924440 7.909909 2.911271 -5.420510 3.320501 -14.454512 0.062500 10.783000
O 8.969760 7.634051 2.741473 -1.425218 -3.160400 0.127502 1.000000 -21.566000
H 9.168035 7.492108 2.960672 12.753671 10.105212 9.756848 0.062500 10.783000
H 7.464269 1.384503 9.791716 -15.413961 6.400732 1.708720 0.062500 10.783000
O 7.225338 1.202550 9.651053 -3.596214 -1.461971 -0.950917 1.000000 -21.566000
H 7.027406 1.116002 9.904610 4.052616 5.123541 4.038458 0.062500 10.783000
H 2.098026 11.175745 11.301425 -8.162239 -7.210981 -11.013189 0.062500 10.783000
O 2.004209 11.018830 11.561300 -1.536995 0.185937 0.814493 1.000000 -21.566000
H 1.859018 10.737544 11.514429 0.980990 -2.861854 -9.388503 0.062500 10.783000
H 13.334045 13.009146 8.915217 -0.033052 -1.333666 -0.666148 0.062500 10.783000
O 13.200121 13.180934 9.151601 0.551068 1.038097 -0.114050 1.000000 -21.566000
H 13.084193 12.985536 9.362935 -0.565100 -2.669199 -5.069431 0.062500 10.783000
H 0.399944 9.460712 6.928006 1.206374 12.348253 -14.558572 0.062500 10.783000
O 0.180668 9.648190 7.074416 -2.031637 1.519682 2.174979 1.000000 -21.566000
H 0.357133 9.807512 7.304797 -1.698191 3.970320 -2.925800 0.062500 10.783000
H 9.221142 9.802418 13.816848 2.251714 -7.066679 11.630966 0.062500 10.783000
O 8.911237 9.710779 13.805069 -2.343740 -2.359541 3.508903 1.000000 -21.566000
H 8.756338 9.884967 14.020861 0.600583 -1.130651 9.757744 0.062500 10.783000
H 1.164780 12.143791 7.571565 4.964198 3.412504 -2.616121 0.062500 10.783000
O 1.282482 11.942755 7.780827 3.606357 -0.187998 -3.056774 1.000000 -21.566000
H 1.138241 11.638349 7.752234 -15.412769 0.000852 11.684383 0.062500 10.783000
H 5.123488 14.487981 1.288835 3.305602 -2.000877 -3.925163 0.062500 10.783000
O 4.904941 14.374137 1.078059 -3.477689 -0.322497 0.797201 1.000000 -21.566000
H 4.755538 14.103929 1.177101 9.004978 -8.278634 -6.250453 0.062500 10.783000
H 13.956234 12.548113 11.984938 -4.400567 6.817870 -3.497228 0.062500 10.783000
O 13.869180 12.765031 12.213215 1.200505 2.183986 0.506606 1.000000 -21.566000
H 13.604691 12.659654 12.373290 -6.159719 -6.017895 1.742278 0.062500 10.783000
H 8.514176 8.630332 0.948084 4.931379 5.157782 0.032648 0.062500 10.783000
O 8.573897 8.710289 0.648389 -2.179468 -1.573364 -0.318423 1.000000 -21.566000
H 8.482052 8.469825 0.466747 -7.259243 -11.929320 1.358326 0.062500 10.783000
H 4.151831 11.606628 4.638641 -3.112734 -20.223133 -11.942689 0.062500 10.783000
O 3.951788 11.457887 4.849595 -4.057865 -0.369692 0.841988 1.000000 -21.566000
H 3.715546 11.331076 4.672479 -10.175318 -12.488553 10.559200 0.062500 10.783000
H 3.359045 12.241915 2.042785 5.827568 13.743362 -1.013498 0.062500 10.783000
O 3.074106 12.384200 2.087631 0.502330 2.911337 1.245138 1.000000 -21.566000
H 3.040902 12.607781 1.868098 3.954393 7.905494 0.289921 0.062500 10.783000
H 8.838318 9.715345 5.356208 -0.546110 -2.623678 1.245009 0.062500 10.783000
O 9.117795 9.578697 5.442251 0.596458 -1.411822 1.528681 1.000000 -21.566000
H 9.178237 9.337519 5.259117 2.687173 14.574186 -1.590287 0.062500 10.783000
H 3.809582 8.822977 2.937349 13.140956 -4.321353 -3.492803 0.062500 10.783000
O 3.773809 8.665477 2.671214 0.737194 2.161226 -0.392304 1.000000 -21.566000
H 3.860556 8.904390 2.449396 13.635986 4.455411 -0.244089 0.062500 10.783000
H 8.375923 7.057444 4.969014 1.718081 0.880068 7.719145 0.062500 10.783000
O 8.624834 7.021888 5.146305 -0.127984 3.517882 -0.162447 1.000000 -21.566000
H 8.509491 6.949899 5.441828 10.435831 2.468165 9.517442 0.062500 10.783000
H 8.800093 9.513335 2.678814 -7.990210 7.358135 9.884773 0.062500 10.783000
O 9.016075 9.408326 2.896211 0.654185 -0.543181 -4.666199 1.000000 -21.566000
H 9.026248 9.119461 2.770229 -4.387907 -0.355609 5.157124 0.062500 10.783000
H 8.312661 7.698574 8.478469 2.464326 -12.310692 -4.210703 0.062500 10.783000
O 8.557112 7.770742 8.681922 3.728143 -0.156145 -2.089401 1.000000 -21.566000
H 8.699235 7.480534 8.736378 8.053831 -10.912220 -6.849592 0.062500 10.783000
H 2.668621 0.468414 0.598615 2.119303 3.810043 4.690682 0.062500 10.783000
O 2.444952 0.512683 0.840342 0.327904 -0.551328 1.204667 1.000000 -21.566000
H 2.259404 0.763953 0.751353 -4.274278 -16.382272 -7.023067 0.062500 10.783000
H 13.858890 10.452994 1.862308 -10.133203 0.322395 3.615822 0.062500 10.783000
O 13.697727 10.523448 2.116217 2.856144 3.531083 0.630349 1.000000 -21.566000
H 13.422834 10.618746 2.002465 -0.531779 0.113042 2.776239 0.062500 10.783000
H 12.771845 8.798385 4.754485 0.965196 -3.306109 -6.555701 0.062500 10.783000
O 12.988928 9.028265 4.830239 -2.155920 -0.286631 -4.549212 1.000000 -21.566000
H 13.109769 9.151113 4.562827 -7.674946 2.531936 -9.196311 0.062500 10.783000
H 13.431783 9.808294 1.363779 -11.992380 6.237123 -2.071946 0.062500 10.783000
O 13.193046 9.831629 1.158804 -4.198761 -1.985589 -4.162489 1.000000 -21.566000
H 13.226968 10.128133 1.030766 10.320649 13.164506 8.475059 0.062500 10.783000
H 14.404826 9.544284 8.662461 -12.994634 0.345481 1.523115 0.062500 10.783000
O 14.478911 9.410317 8.380642 -1.859936 -4.929920 -2.962215 1.000000 -21.566000
H 14.294452 9.532496 8.144473 -0.932410 -1.963472 0.514957 0.062500 10.783000
H 6.360126 13.287925 14.333247 3.843881 7.568508 -9.097729 0.062500 10.783000
O 6.265331 13.360330 14.633166 0.616482 -4.433090 0.836183 1.000000 -21.566000
H 5.961057 13.319853 14.703210 2.755925 7.066774 6.319041 0.062500 10.783000
H 7.371264 6.937771 4.951937 4.624076 -2.326836 4.177894 0.062500 10.783000
O 7.263792 7.084299 4.686580 3.914725 4.723338 -0.004638 1.000000 -21.566000
H 6.947591 7.064557 4.634198 4.602321 2.995207 1.834912 0.062500 10.783000
H 7.821569 1.696441 4.126394 3.625481 1.919161 -18.534987 0.062500 10.783000
O 7.719187 1.989899 4.078599 -1.628504 -1.932800 3.964585 1.000000 -21.566000
H 7.415680 1.918884 4.000191 0.327445 -4.565211 -8.160381 0.062500 10.783000
H 1.192544 6.409001 3.602614 -2.716526 -0.804237 -1.054704 0.062500 10.783000
O 1.086231 6.389255 3.903987 -1.140940 0.606482 -0.932515 1.000000 -21.566000
H 0.774304 6.384365 3.897377 5.062569 -4.810967 1.908077 0.062500 10.783000
H 0.018155 6.902220 11.792077 5.073644 2.162324 -5.298787 0.062500 10.783000
O 14.565149 6.664195 11.770938 1.826766 0.808588 0.844096 1.000000 -21.566000
H 14.355501 6.718317 11.530983 -4.105875 -7.779421 -5.277184 0.062500 10.783000
H 11.299765 7.004352 1.798785 -3.699187 -8.271777 3.264219 0.062500 10.783000
O 11.044429 6.843434 1.719424 -2.288073 -2.061082 0.422920 1.000000 -21.566000
H 10.849702 7.084057 1.644730 -10.201549 10.616174 1.369394 0.062500 10.783000
H 12.755807 8.430395 1.765551 5.880955 2.265952 -3.475650 0.062500 10.783000
O 13.037033 8.288730 1.848082 0.526561 -0.765003 -0.140977 1.000000 -21.566000
H 13.054350 8.023603 1.676117 -5.942740 -6.135454 0.980416 0.062500 10.783000
H 8.552734 9.815006 1.526202 -9.671904 -7.814084 0.536256 0.062500 10.783000
O 8.357640 9.945252 1.325657 -3.187028 -0.824540 2.096825 1.000000 -21.566000
H 8.081090 10.034914 1.445215 -13.010959 3.461538 8.938286 0.062500 10.783000
H 12.294513 13.088473 0.923356 2.620599 0.670777 4.671564 0.062500 10.783000
O 11.986268 13.074290 0.808261 -0.450496 1.789268 -1.509525 1.000000 -21.566000
H 11.810554 12.877124 0.996973 -0.135305 2.863664 -2.432357 0.062500 10.783000
H 9.569271 14.236104 8.872354 -6.145787 1.211674 -18.353920 0.062500 10.783000
O 9.398719 14.102334 8.638084 2.466108 1.975416 -1.426811 1.000000 -21.566000
H 9.091528 14.184152 8.706498 2.564438 -13.340775 -2.540243 0.062500 10.783000
H 7.567378 6.684954 7.187924 6.169882 -1.582685 2.444018 0.062500 10.783000
O 7.409512 6.487216 6.991703 0.696499 -3.733098 1.119602 1.000000 -21.566000
H 7.451373 6.603627 6.702256 4.510519 -0.352723 4.274690 0.062500 10.783000
H 7.817673 8.927086 5.304780 -7.827487 -9.254068 11.894497 0.062500 10.783000
O 8.021424 8.855143 5.545440 -2.522939 1.681935 1.644249 1.000000 -21.566000
H 8.234464 9.097812 5.567263 10.919612 5.525207 -8.690892 0.062500 10.783000
H 6.864663 7.016262 6.860029 4.956057 -4.124195 -2.251156 0.062500 10.783000
O 6.548827 7.084673 6.891238 -2.253833 0.697309 2.372298 1.000000 -21.566000
H 6.400326 6.818712 6.756973 -0.465105 2.527524 -0.547344 0.062500 10.783000
H 11.110337 12.679055 2.762332 0.499961 0.066480 -3.376201 0.062500 10.783000
O 11.159176 12.673660 2.448243 0.202248 -0.767353 -2.577228 1.000000 -21.566000
H 10.991759 12.910519 2.326059 2.121443 5.366476 6.447749 0.062500 10.783000
H 8.877838 6.183251 0.196815 3.120432 -6.960005 -1.797608 0.062500 10.783000
O 8.644928 6.397377 0.244978 0.903151 -2.424878 -2.375713 1.000000 -21.566000
H 8.708833 6.670300 0.093405 -0.822803 1.293244 -3.972300 0.062500 10.783000
H 1.604417 6.542738 2.910697 -2.315597 3.067620 -2.137109 0.062500 10.783000
O 1.618443 6.639141 3.222749 2.356889 -1.370621 -0.236301 1.000000 -21.566000
H 1.733039 6.929842 3.220390 4.101052 -11.012074 4.567871 0.062500 10.783000
H 5.476152 12.898199 14.378540 -1.000768 2.197053 -11.256088 0.062500 10.783000
O 5.624290 12.796373 14.122710 0.275978 -1.446323 -1.975080 1.000000 -21.566000
H 5.465438 12.566369 13.958725 0.317749 2.856595 -5.214789 0.062500 10.783000
H 10.801975 8.677899 1.663077 7.951908 -3.374551 -4.084519 0.062500 10.783000
O 10.749366 8.960756 1.817338 3.636994 -4.650834 1.623138 1.000000 -21.566000
H 11.028441 9.049452 1.959543 6.223621 -7.909931 9.545074 0.062500 10.783000
H 4.494337 2.502900 14.536634 -3.283949 11.877764 4.587127 0.062500 10.783000
O 4.251344 2.693819 14.556108 -2.424636 0.206586 0.576139 1.000000 -21.566000
H 4.294064 2.947226 14.368219 -3.773543 -11.904199 -7.463248 0.062500 10.783000
H 4.824904 1.426052 11.348073 1.579305 17.006485 -0.239898 0.062500 10.783000
O 5.074949 1.540686 11.173326 2.114365 0.138247 0.621836 1.000000 -21.566000
H 5.344205 1.489498 11.345126 -3.632474 -0.772956 11.100135 0.062500 10.783000
H 1.557881 11.521651 14.410521 1.155814 -1.741638 7.933026 0.062500 10.783000
O 1.845623 11.374027 14.390013 -4.190597 -4.138622 0.348771 1.000000 -21.566000
H 1.890856 11.306624 14.075121 9.250949 6.095012 -15.275014 0.062500 10.783000
H 6.222527 10.558943 5.942754 5.551793 2.541861 8.587487 0.062500 10.783000
O 6.347688 10.845963 5.911710 -0.726044 -3.402622 -0.362466 1.000000 -21.566000
H 6.291960 10.944567 5.603997 2.461801 7.492130 -0.169280 0.062500 10.783000
H 7.870107 8.689865 11.347389 2.419850 -6.465926 -8.765305 0.062500 10.783000
O 7.758749 8.985863 11.339683 -0.094295 -1.359511 1.751938 1.000000 -21.566000
H 7.522562 8.985737 11.132351 -4.791556 -1.604409 14.368704 0.062500 10.783000
H 8.912411 5.757127 13.280268 9.582629 7.245818 -10.049461 0.062500 10.783000
O 8.657814 5.731405 13.078131 0.924074 1.446438 -1.180527 1.000000 -21.566000
H 8.726546 5.503855 12.852990 -7.052925 4.554947 -2.782709 0.062500 10.783000
H 10.923232 10.808034 4.517492 1.615876 -5.920682 -8.982177 0.062500 10.783000
O 10.790451 11.093682 4.442490 -0.114745 -3.097404 -1.633321 1.000000 -21.566000
H 10.517957 11.000185 4.292628 5.613529 -4.311813 3.891077 0.062500 10.783000
H 5.451915 9.776640 12.022012 2.443088 -2.333710 -2.321432 0.062500 10.783000
O 5.569206 9.593293 11.794220 0.021702 -0.542517 0.758093 1.000000 -21.566000
H 5.359891 9.553324 11.541245 -0.679969 -1.837279 0.703303 0.062500 10.783000
H 1.184027 0.240806 2.404167 -5.548836 -10.707715 -9.906892 0.062500 10.783000
O 1.235117 0.566431 2.354245 -0.982204 0.072042 0.258842 1.000000 -21.566000
H 1.184803 0.740061 2.616378 18.259240 5.461755 -5.184440 0.062500 10.783000
H 0.831452 10.231618 5.635768 17.653529 -18.485619 11.559110 0.062500 10.783000
O 0.688208 9.956499 5.713354 2.674395 2.993241 0.305917 1.000000 -21.566000
H 0.926494 9.734384 5.737524 -4.686090 5.867088 5.673158 0.062500 10.783000
H 3.283281 12.534672 10.604906 -16.112458 3.169106 -5.165125 0.062500 10.783000
O 3.120517 12.408386 10.372619 -1.242265 1.345199 1.696127 1.000000 -21.566000
H 3.039142 12.613923 10.142188 -15.085451 7.545708 -2.970715 0.062500 10.783000
H 0.416016 1.432726 0.076517 -2.536407 -0.348418 1.909020 0.062500 10.783000
O 0.701974 1.282770 0.074668 -1.705541 3.181526 -2.761841 1.000000 -21.566000
H 0.908322 1.518256 0.092453 -5.415815 -0.443931 2.141280 0.062500 10.783000
H 2.588815 8.399678 3.499796 -9.260600 3.653495 -6.479684 0.062500 10.783000
O 2.475317 8.590952 3.270826 2.120276 0.920605 2.150264 1.000000 -21.566000
H 2.643559 8.549523 3.004797 -2.983833 7.935480 -0.438926 0.062500 10.783000
H 14.660207 8.071481 12.461157 0.276247 -10.439661 4.729295 0.062500 10.783000
O 14.560137 7.961960 12.739821 0.286739 -2.856798 -0.984882 1.000000 -21.566000
H 14.522258 8.192952 12.966626 -4.582874 -0.409426 4.476887 0.062500 10.783000
H 9.635451 3.671749 14.682857 -2.474464 7.672667 -9.423494 0.062500 10.783000
O 9.482230 3.436518 0.109946 1.187129 -1.811979 0.534327 1.000000 -21.566000
H 9.618100 3.533365 0.387166 -15.791271 -3.343406 3.114035 0.062500 10.783000
H 11.836899 9.365256 13.407602 7.349092 3.182234 2.754816 0.062500 10.783000
O 12.056629 9.579466 13.282698 0.894805 4.583615 -2.123358 1.000000 -21.566000
H 11.941873 9.687218 13.015222 -1.894897 -5.675897 -12.235521 0.062500 10.783000
H 0.502416 13.684371 12.056213 2.049924 -0.630525 8.723208 0.062500 10.783000
O 0.534422 13.556948 11.750874 -4.330978 -0.259050 -2.053267 1.000000 -21.566000
H 0.427416 13.254567 11.755045 10.930134 6.545400 -4.307733 0.062500 10.783000
H 9.734649 11.136213 11.719785 2.076484 -1.644038 -3.179024 0.062500 10.783000
O 9.930174 10.906124 11.810818 -2.647717 -1.794998 -3.627912 1.000000 -21.566000
H 10.212649 10.876676 11.652689 3.948856 -3.552755 -1.219103 0.062500 10.783000
H 5.231708 11.914000 2.898342 -5.822541 7.596525 -0.490636 0.062500 10.783000
O 5.555672 11.869264 2.895732 -0.622539 -1.818603 0.843740 1.000000 -21.566000
H 5.679200 12.065094 2.686939 -10.664556 7.608024 7.231123 0.062500 10.783000
H 8.957041 14.233561 11.312359 -2.803796 2.626380 -0.167013 0.062500 10.783000
O 8.717073 14.203880 11.501131 -2.474232 3.477963 -1.311684 1.000000 -21.566000
H 8.756927 13.995494 11.754820 4.502072 8.149516 -8.097142 0.062500 10.783000
H 7.635007 12.118718 1.167388 -1.569633 -1.030073 -10.925314 0.062500 10.783000
O 7.931625 12.179832 1.239241 0.734137 -4.968869 -0.044337 1.000000 -21.566000
H 8.144397 11.979205 1.108671 -4.204471 -15.197132 2.898272 0.062500 10.783000
H 10.537213 14.651869 1.772143 -1.437074 -7.492131 2.551972 0.062500 10.783000
O 10.654363 0.113180 1.988447 -0.213053 -3.504021 3.914030 1.000000 -21.566000
H 10.902564 14.729437 2.118765 -6.903407 4.965666 6.817466 0.062500 10.783000
H 13.576651 13.878761 4.686279 8.910381 3.706124 2.677959 0.062500 10.783000
O 13.561749 13.574402 4.576792 1.298196 3.085473 -4.425251 1.000000 -21.566000
H 13.693766 13.410672 4.816691 -12.438075 3.040678 -0.278662 0.062500 10.783000
H 10.703469 0.291250 14.531544 0.411538 9.726479 -4.952441 0.062500 10.783000
O 10.381427 0.268332 14.583813 1.990194 -1.974513 -0.224677 1.000000 -21.566000
H 10.218886 0.530535 14.510588 2.964467 -2.051565 2.686709 0.062500 10.783000
H 13.750898 8.893693 4.095311 -5.501270 -1.878556 6.010428 0.062500 10.783000
O 14.011636 9.031019 4.243740 1.071935 -0.278804 0.129271 1.000000 -21.566000
H 14.034015 9.324088 4.125622 -0.502468 2.590749 5.934397 0.062500 10.783000
H 7.465598 13.539973 13.380385 9.512734 4.326226 -4.068112 0.062500 10.783000
O 7.189505 13.709475 13.423676 -0.200341 -1.551485 -1.558223 1.000000 -21.566000
H 7.311428 13.956358 13.603696 -9.755025 2.165029 6.454154 0.062500 10.783000
H 0.075909 3.769074 6.866688 -7.473889 2.340364 16.051277 0.062500 10.783000
O 0.098965 3.479724 6.995453 2.314210 -1.955242 -0.751352 1.000000 -21.566000
H 14.585455 3.276732 6.917992 4.252966 -7.113225 -6.711564 0.062500 10.783000
H 4.193520 8.094068 13.221407 5.501577 1.832079 -10.915778 0.062500 10.783000
O 3.984948 8.127405 12.973013 3.126784 -1.393914 0.702563 1.000000 -21.566000
H 4.128975 7.969740 12.736411 0.071773 -7.415783 4.176918 0.062500 10.783000
H 0.412390 13.099324 10.326915 -0.137098 13.976436 8.922241 0.062500 10.783000
O 0.408102 13.384909 10.197232 -0.868082 -0.577618 0.791644 1.000000 -21.566000
H 0.693601 13.426668 10.060645 5.073736 5.017074 18.073760 0.062500 10.783000
H 8.361591 11.891450 4.259019 9.446522 1.817534 -7.440055 0.062500 10.783000
O 8.289140 12.092263 4.026343 -0.308632 1.635786 -0.456304 1.000000 -21.566000
H 8.406873 11.960142 3.768729 8.330415 -1.681204 3.932406 0.062500 10.783000
H 14.186515 2.113385 13.120107 4.497935 -2.110465 -1.457137 0.062500 10.783000
O 14.063044 1.992574 13.386357 -0.960768 -2.499501 0.737015 1.000000 -21.566000
H 13.829778 2.175767 13.505059 -6.784854 13.123761 -4.737795 0.062500 10.783000
H 12.183522 1.247081 10.005374 -15.400065 -7.656335 5.578433 0.062500 10.783000
O 12.112586 1.325694 10.302597 0.549825 2.375628 0.499914 1.000000 -21.566000
H 12.071513 1.044688 10.443978 -3.029503 7.940577 -11.454271 0.062500 10.783000
H 7.596528 13.039363 14.397672 3.453659 3.403866 3.654383 0.062500 10.783000
O 7.466862 12.757962 14.348996 1.206063 0.485126 0.906077 1.000000 -21.566000
H 7.300152 12.664662 14.610040 -1.739859 -0.447154 -4.343474 0.062500 10.783000
H 8.790872 13.923988 6.878639 10.365921 -6.239097 -8.683842 0.062500 10.783000
O 8.606796 13.868000 6.639569 -0.224426 -0.217442 1.463275 1.000000 -21.566000
H 8.388889 14.091057 6.584537 4.128477 -0.848736 9.426996 0.062500 10.783000
H 10.256462 12.247607 0.414613 -8.836404 -4.107278 -9.216421 0.062500 10.783000
O 10.157622 12.419104 0.656051 4.204111 -2.487175 -1.089260 1.000000 -21.566000
H 10.313820 12.690967 0.710081 16.703547 -3.811362 3.248593 0.062500 10.783000
H 10.656348 9.834130 2.593724 -0.907069 -6.286093 -7.271022 0.062500 10.783000
O 10.731388 9.599589 2.792767 0.784793 -0.328117 -5.322769 1.000000 -21.566000
H 11.044350 9.639563 2.843574 -4.595727 5.557558 5.570546 0.062500 10.783000
H 11.525843 13.449415 6.062311 -1.461162 -8.113754 6.877093 0.062500 10.783000
O 11.272492 13.350137 5.892177 -0.347316 -1.671979 -2.233859 1.000000 -21.566000
H 11.390197 13.274249 5.599981 7.980839 -3.280943 -2.692789 0.062500 10.783000
H 10.482845 0.095557 3.771408 -6.948777 8.642655 -3.940595 0.062500 10.783000
O 10.290113 0.084915 4.037207 1.107112 0.736628 -1.579952 1.000000 -21.566000
H 10.171006 14.527242 4.050807 9.072548 1.037468 1.256904 0.062500 10.783000
H 4.039758 12.152673 1.723239 -9.788762 7.102616 -1.363504 0.062500 10.783000
O 3.777012 11.957658 1.797523 1.860649 -2.091143 2.162980 1.000000 -21.566000
H 3.720427 11.711914 1.589157 -0.232608 4.025207 -10.571257 0.062500 10.783000
H 11.581826 11.056610 5.673325 6.362729 11.252275 11.265687 0.062500 10.783000
O 11.591249 10.740066 5.685300 1.958827 -1.767768 1.689931 1.000000 -21.566000
H 11.717193 10.613361 5.428810 -8.321282 -6.431358 2.896801 0.062500 10.783000
H 11.028403 14.374795 4.633981 18.874668 -12.318716 -1.974267 0.062500 10.783000
O 10.857160 14.262682 4.384050 2.736416 -2.615972 1.587725 1.000000 -21.566000
H 10.611165 14.478199 4.347724 4.111728 8.310752 1.839853 0.062500 10.783000
H 6.214283 11.378138 0.918089 -6.777708 -1.826828 11.324543 0.062500 10.783000
O 6.105099 11.065277 0.956164 -3.011114 -0.921527 -3.319544 1.000000 -21.566000
H 6.294702 10.803944 0.923983 -1.512957 5.016295 -4.437633 0.062500 10.783000
H 1.120975 4.475158 3.286991 3.512761 0.686077 -4.562796 0.062500 10.783000
O 1.303472 4.393395 3.041299 -0.981147 -0.958583 2.967566 1.000000 -21.566000
H 1.129348 4.310546 2.785987 -6.647902 5.560070 -2.642297 0.062500 10.783000
H 5.346650 0.143531 10.546870 -4.840976 10.831228 1.940864 0.062500 10.783000
O 5.090826 0.140892 10.364357 -0.504517 2.434890 1.194993 1.000000 -21.566000
H 4.976259 0.415851 10.475039 18.521765 10.028394 1.823514 0.062500 10.783000
H 13.337975 12.860445 14.554915 -6.292073 -14.470090 -4.209497 0.062500 10.783000
O 13.475159 12.580447 14.533435 -1.333373 -2.524213 -0.823096 1.000000 -21.566000
H 13.732637 12.653510 14.341088 -7.656279 5.712551 -7.880256 0.062500 10.783000
H 13.072623 13.495108 14.567762 7.693703 -11.704722 -6.187313 0.062500 10.783000
O 13.339505 13.633771 14.446881 3.115150 -0.152339 -0.669436 1.000000 -21.566000
H 13.393767 13.463459 14.183279 -1.388721 2.181393 -20.532127 0.062500 10.783000
H 10.655226 11.627422 11.946434 -0.203053 9.332706 14.418610 0.062500 10.783000
O 10.839958 11.716621 11.692758 -0.258023 -1.222964 1.983572 1.000000 -21.566000
H 10.740714 11.951194 11.509913 7.289573 -2.026248 5.418886 0.062500 10.783000
H 8.525301 14.089787 8.360535 0.743743 0.430044 1.745664 0.062500 10.783000
O 8.535841 14.221705 8.654966 1.792438 3.328653 -1.881910 1.000000 -21.566000
H 8.221848 14.265195 8.707521 -9.938765 -7.706902 4.312156 0.062500 10.783000
H 7.372441 14.079915 11.243841 10.699765 -11.283599 3.349778 0.062500 10.783000
O 7.326172 14.329417 11.433553 0.678033 1.522570 -2.391775 1.000000 -21.566000
H 7.437408 14.247400 11.724705 4.548975 -1.312686 7.031274 0.062500 10.783000
H 8.534649 6.249051 1.832901 5.306102 11.811212 2.653747 0.062500 10.783000
O 8.832854 6.314475 1.734764 2.618702 -0.279160 0.656504 1.000000 -21.566000
H 8.857630 6.093966 1.495546 -8.853160 -6.254592 -4.546410 0.062500 10.783000
H 5.526220 10.237970 3.298034 10.618458 -6.985106 0.166008 0.062500 10.783000
O 5.404717 10.191032 3.591781 -3.337879 -1.612614 -3.158208 1.000000 -21.566000
H 5.099788 10.267396 3.590724 -3.424208 -4.840267 4.279465 0.062500 10.783000
H 12.658319 12.774012 12.244847 9.312924 -7.949902 13.609619 0.062500 10.783000
O 12.902921 12.571533 12.224794 1.516339 1.200047 -0.505614 1.000000 -21.566000
H 12.847875 12.457318 11.922004 -2.445683 -2.542738 -13.929248 0.062500 10.783000
H 0.906267 12.585184 3.686593 3.163653 -3.407413 5.881525 0.062500 10.783000
O 0.929451 12.914921 3.651683 -2.129713 1.661183 -0.139348 1.000000 -21.566000
H 0.654117 13.033464 3.536420 5.623990 4.834506 -1.441922 0.062500 10.783000
H 12.545819 4.306650 12.246568 0.628249 -9.282567 -1.626901 0.062500 10.783000
O 12.419784 4.566760 12.402420 -0.205761 1.030019 -1.162694 1.000000 -21.566000
H 12.152021 4.468343 12.557845 7.969530 -8.382328 -5.126889 0.062500 10.783000
H 13.588135 11.535312 5.215468 -4.147587 -7.178351 6.764705 0.062500 10.783000
O 13.274710 11.536121 5.212754 -1.169558 0.527198 0.335578 1.000000 -21.566000
H 13.174962 11.355707 5.456744 -8.736233 4.738749 5.865925 0.062500 10.783000
H 9.579294 14.518147 10.941916 -4.739357 18.229703 4.799755 0.062500 10.783000
O 9.563727 14.270581 11.145452 0.272054 -3.575856 -0.071598 1.000000 -21.566000
H 9.786941 14.055475 11.046199 11.609087 7.852707 -10.012836 0.062500 10.783000
H 1.236135 13.997073 6.381729 4.411765 -0.930115 -6.370525 0.062500 10.783000
O 1.036287 14.012658 6.636179 -0.143593 -0.798869 -1.732414 1.000000 -21.566000
H 0.736406 14.050936 6.554796 17.839230 0.522356 1.747995 0.062500 10.783000
H 3.097033 3.539984 1.325359 5.976183 -1.081136 -5.981647 0.062500 10.783000
O 2.789821 3.613244 1.235208 0.585155 1.963657 -0.188425 1.000000 -21.566000
H 2.680649 3.804723 1.480217 4.503901 11.223234 -7.978143 0.062500 10.783000
H 6.934419 13.013970 14.150641 -1.528525 9.404283 -8.050696 0.062500 10.783000
O 6.751083 13.154081 13.945496 1.733185 2.828708 3.081407 1.000000 -21.566000
H 6.965523 13.338486 13.782135 3.975747 -0.219977 -2.457885 0.062500 10.783000
H 5.575094 8.930468 0.884428 -12.171758 9.293786 -1.106382 0.062500 10.783000
O 5.627196 8.780516 0.600808 1.122193 0.539806 -1.567268 1.000000 -21.566000
H 5.379183 8.869759 0.425704 6.737999 6.841007 7.561833 0.062500 10.783000
H 1.493733 2.004425 5.470723 -0.898882 9.748502 -11.465839 0.062500 10.783000
O 1.240064 1.798163 5.500959 2.396848 0.153727 4.232583 1.000000 -21.566000
H 1.373177 1.569109 5.691956 5.743451 -11.051966 -7.870624 0.062500 10.783000
H 11.467179 14.193268 13.955470 2.696477 3.004169 5.992763 0.062500 10.783000
O 11.590330 14.392705 13.746826 -0.724256 -3.176669 2.022971 1.000000 -21.566000
H 11.897403 14.334711 13.691505 -1.573593 -3.296078 3.196506 0.062500 10.783000
H 7.671900 2.615466 2.696917 16.121392 4.949549 1.099622 0.062500 10.783000
O 7.878127 2.598054 2.448007 -1.568564 -2.362317 2.581560 1.000000 -21.566000
H 8.038091 2.327541 2.492609 -3.184596 6.400707 -3.289965 0.062500 10.783000
H 11.061600 13.838777 13.777039 10.254986 12.685525 -2.170363 0.062500 10.783000
O 11.092999 13.584382 13.578080 -0.773654 -2.952006 -2.167801 1.000000 -21.566000
H 11.007425 13.716710 13.298535 13.590863 -7.551741 -3.365160 0.062500 10.783000
H 13.113907 13.346405 5.807718 -1.006316 9.729515 -14.286231 0.062500 10.783000
O 12.836527 13.194817 5.738067 0.479508 3.763915 -5.837431 1.000000 -21.566000
H 12.882035 12.904501 5.870879 5.093682 -4.912320 -8.285517 0.062500 10.783000
H 8.417664 0.347367 11.429511 -6.073927 12.254274 1.168598 0.062500 10.783000
O 8.190329 0.105086 11.401183 -1.159552 2.933087 -0.144588 1.000000 -21.566000
H 8.400120 14.589631 11.443236 10.490929 0.554145 -12.114057 0.062500 10.783000
H 12.583286 1.160678 13.794229 -1.738051 -5.949351 7.644332 0.062500 10.783000
O 12.509688 1.439883 13.633995 -2.804241 3.462723 1.347840 1.000000 -21.566000
H 12.628812 1.711148 13.755181 3.125281 3.307780 -3.138513 0.062500 10.783000
H 0.057228 13.080522 2.862985 -3.854146 -1.627607 3.834353 0.062500 10.783000
O 0.278685 13.077356 3.080485 1.108758 -2.349222 0.455806 1.000000 -21.566000
H 0.210777 13.322404 3.271202 -14.047908 5.198702 -13.425201 0.062500 10.783000
H 8.095555 14.009565 5.227769 -12.668336 -0.501071 -17.116538 0.062500 10.783000
O 7.884748 13.769593 5.181739 -4.192705 -1.078030 0.076650 1.000000 -21.566000
H 7.640805 13.813458 5.395916 -7.620386 -2.210629 3.639207 0.062500 10.783000
H 11.240327 14.489132 4.058596 -4.767063 -4.732337 1.010743 0.062500 10.783000
O 11.406106 14.658387 3.828426 -2.443403 4.714456 -1.035254 1.000000 -21.566000
H 11.570778 0.130483 3.989343 2.069203 -5.496645 7.455246 0.062500 10.783000
H 13.565306 11.150982 4.375198 -15.909741 -5.334298 -1.253422 0.062500 10.783000
O 13.433427 11.452057 4.358855 0.543194 1.627363 1.044903 1.000000 -21.566000
H 13.332827 11.532648 4.666062 -2.641865 -6.441071 -5.934977 0.062500 10.783000
H 2.387344 0.910558 2.771928 10.030762 -3.460031 9.318338 0.062500 10.783000
O 2.255963 0.624844 2.863473 -2.602490 -0.224976 -1.479623 1.000000 -21.566000
H 2.256135 0.444635 2.596516 -4.221198 -0.984831 -10.606637 0.062500 10.783000
H 2.249853 2.733234 5.285311 11.778958 -3.641996 2.130071 0.062500 10.783000
O 2.359344 2.986536 5.125708 -0.669750 -1.990543 0.708615 1.000000 -21.566000
H 2.280655 2.965755 4.820938 7.869099 -3.421565 -3.240975 0.062500 10.783000
H 1.008973 11.995365 11.905592 5.465004 6.998636 -0.207841 0.062500 10.783000
O 0.891549 12.293469 11.974913 -1.432173 3.196777 1.988222 1.000000 -21.566000
H 1.169492 12.452247 12.024434 -1.706565 11.277491 -6.987676 0.062500 10.783000
H 1.746907 0.457833 8.031576 3.192108 10.003030 9.425830 0.062500 10.783000
O 1.786146 0.620784 7.751243 0.466941 1.183559 4.986408 1.000000 -21.566000
H 1.514763 0.759216 7.634044 -10.779212 -7.414257 -16.616328 0.062500 10.783000
H 0.548770 14.123881 2.121218 -7.864584 -0.936097 10.890207 0.062500 10.783000
O 0.831974 14.286450 2.167250 1.232882 -0.375510 4.718649 1.000000 -21.566000
H 0.904164 14.334392 2.477860 -15.339874 4.120674 -2.567194 0.062500 10.783000
H 12.639027 4.825421 0.128371 -4.560646 5.844203 2.158086 0.062500 10.783000
O 12.506962 4.589361 0.288227 -0.051485 -1.861819 0.720855 1.000000 -21.566000
H 12.491254 4.663905 0.601989 15.327542 -7.646791 8.327249 0.062500 10.783000
H 0.494971 4.398944 3.667513 2.720700 -0.421253 -2.929886 0.062500 10.783000
O 0.772746 4.548139 3.720245 1.329740 -1.114621 0.427793 1.000000 -21.566000
H 0.910841 4.438529 3.997034 -3.495273 -13.639887 9.446139 0.062500 10.783000
H 6.189927 12.601612 9.732632 -5.718589 -1.071419 -1.666669 0.062500 10.783000
O 6.318102 12.493966 9.458012 2.101215 0.767086 0.361104 1.000000 -21.566000
H 6.167810 12.653605 9.227010 -5.007279 2.770704 13.334175 0.062500 10.783000
H 14.625867 1.773015 1.426834 5.922097 2.193781 4.912203 0.062500 10.783000
O 14.473515 1.679482 1.161648 -1.570102 0.776733 -2.343639 1.000000 -21.566000
H 14.269604 1.912893 1.099973 1.594896 12.427535 -0.638041 0.062500 10.783000
H 9.982758 1.329248 13.235669 -1.566249 4.555524 -13.640824 0.062500 10.783000
O 9.751139 1.234724 13.034812 0.432991 0.381162 -0.933304 1.000000 -21.566000
H 9.839496 1.058558 12.769786 1.873336 -11.079355 3.088111 0.062500 10.783000
H 12.830609 10.830992 13.088398 -6.421050 15.395893 11.898847 0.062500 10.783000
O 12.953087 11.065266 12.915847 -0.442044 -0.865306 0.412536 1.000000 -21.566000
H 12.709121 11.274006 12.921415 5.582510 -7.062870 -11.141708 0.062500 10.783000
H 12.607587 14.043998 3.877780 3.019062 -14.939887 -4.563491 0.062500 10.783000
O 12.317784 14.170534 3.813826 0.808181 -1.606262 -2.188065 1.000000 -21.566000
H 12.173873 13.967354 3.584063 0.952841 -4.270824 5.265236 0.062500 10.783000
H 8.245005 4.094924 8.309727 -1.100124 3.238562 2.164266 0.062500 10.783000
O 7.946042 4.197425 8.304400 0.140903 0.753896 1.733063 1.000000 -21.566000
H 7.815311 4.248590 8.609587 -2.260270 4.330263 0.448407 0.062500 10.783000
H 11.749007 5.663542 0.051476 5.594916 -11.443932 -1.505449 0.062500 10.783000
O 11.956926 5.484017 0.204434 2.455772 -3.689523 -1.441336 1.000000 -21.566000
H 12.093522 5.654316 0.441466 10.790839 -14.377104 -2.472005 0.062500 10.783000
H 5.469836 11.739571 11.100058 0.209717 0.695425 -2.216276 0.062500 10.783000
O 5.440199 11.742862 10.781386 -0.295740 0.547991 0.746441 1.000000 -21.566000
H 5.359413 12.039659 10.711250 -3.588880 2.762098 13.256033 0.062500 10.783000
H 3.667930 2.714974 14.371480 6.723283 -0.408243 4.973424 0.062500 10.783000
O 3.374290 2.630303 14.455957 -2.206180 -2.835164 0.583009 1.000000 -21.566000
H 3.437445 2.407289 14.682630 -10.294039 -10.527939 -5.134541 0.062500 10.783000
H 4.295437 2.630723 1.687820 6.214893 0.044876 -5.612525 0.062500 10.783000
O 4.112890 2.799385 1.475901 0.099884 -1.370751 1.659910 1.000000 -21.566000
H 4.291713 2.920792 1.242029 -0.301418 -5.131371 -4.637428 0.062500 10.783000
H 5.741764 3.210002 2.506544 4.960669 0.616484 -4.967015 0.062500 10.783000
O 5.439505 3.200594 2.615670 0.960359 0.330517 -5.792992 1.000000 -21.566000
H 5.322657 3.480769 2.678911 -12.088202 -6.403618 10.417264 0.062500 10.783000
H 11.839642 14.125135 10.143043 -6.781128 16.963596 -2.388489 0.062500 10.783000
O 11.597922 13.965530 9.987240 -0.030536 -2.339151 3.407533 1.000000 -21.566000
H 11.385437 14.191571 9.882443 3.994937 -7.701723 3.244559 0.062500 10.783000
H 6.387756 0.736144 4.717926 -7.015392 -0.862119 -6.928821 0.062500 10.783000
O 6.215894 0.864371 4.969649 2.252098 -2.287867 0.976621 1.000000 -21.566000
H 6.039562 1.106156 4.862539 6.306919 -3.281872 1.880441 0.062500 10.783000
H 9.175728 14.545155 0.694402 7.307513 -6.256012 16.835340 0.062500 10.783000
O 9.387487 0.006288 0.815533 -2.374632 0.417563 -3.137159 1.000000 -21.566000
H 9.673308 14.668688 0.689902 -12.649075 -4.596921 -1.196632 0.062500 10.783000
H 2.661365 5.025538 3.965827 -1.998471 15.719573 -1.874034 0.062500 10.783000
O 2.497233 5.005096 3.680850 2.264612 -0.060198 -3.648252 1.000000 -21.566000
H 2.606561 4.753465 3.497126 -1.629600 -4.192089 7.422143 0.062500 10.783000
H 2.849007 7.771341 3.903115 -24.596744 -4.347399 -7.991990 0.062500 10.783000
O 2.808775 8.090024 3.868167 -1.475034 -1.300621 -3.197666 1.000000 -21.566000
H 2.860887 8.261236 4.136881 -5.692724 -6.819557 11.175178 0.062500 10.783000
H 8.124489 11.102807 13.838006 5.518242 3.268353 5.741234 0.062500 10.783000
O 7.934182 10.985001 14.078468 -1.789579 0.459287 1.045268 1.000000 -21.566000
H 8.068380 11.093448 14.369574 -6.232301 9.420589 -6.473261 0.062500 10.783000
H 2.516589 1.932571 6.314496 -11.233761 -6.366303 -1.106717 0.062500 10.783000
O 2.683609 2.151773 6.143231 0.853065 1.250601 0.083996 1.000000 -21.566000
H 2.738943 2.403939 6.321697 5.346087 0.492987 9.166540 0.062500 10.783000
H 7.724078 4.581137 9.260950 3.051438 -13.770841 -8.327502 0.062500 10.783000
O 7.844432 4.303996 9.150711 0.306183 2.979670 1.746871 1.000000 -21.566000
H 7.742971 4.086555 9.378675 11.375774 -8.401291 -1.073541 0.062500 10.783000
H 9.873653 4.360145 14.185079 -13.726618 11.270073 -3.926117 0.062500 10.783000
O 9.815323 4.157002 14.428695 2.660903 -0.763783 -0.554294 1.000000 -21.566000
H 10.088690 4.015631 14.502756 1.509648 4.819949 -1.652147 0.062500 10.783000
H 11.563230 4.761766 0.774543 -20.221872 1.729622 -12.136470 0.062500 10.783000
O 11.627146 5.011093 0.957659 -1.597009 -0.509326 -3.064539 1.000000 -21.566000
H 11.870283 5.188555 0.859157 0.027662 -8.171738 3.519692 0.062500 10.783000
H 12.813341 4.937435 2.718503 -4.674163 9.536103 -1.681411 0.062500 10.783000
O 13.128856 5.008995 2.775968 0.155586 0.304354 1.000673 1.000000 -21.566000
H 13.216928 5.199656 2.530592 1.103780 5.436860 2.186809 0.062500 10.783000
H 13.051444 12.725513 1.148106 -8.047626 9.198244 -6.457136 0.062500 10.783000
O 12.898214 12.925882 0.959198 -0.240050 0.234946 1.631179 1.000000 -21.566000
H 13.104499 13.160280 0.868620 3.145083 -4.955932 -0.489621 0.062500 10.783000
H 0.165860 11.380569 0.019347 4.491912 6.332530 -11.409766 0.062500 10.783000
O 0.337188 11.308262 0.288524 -2.749509 -3.285882 -2.788103 1.000000 -21.566000
H 0.253087 11.494022 0.541291 -1.378794 2.768820 1.951767 0.062500 10.783000
H 5.641762 0.021815 0.935081 -7.298800 -9.009275 -0.333655 0.062500 10.783000
O 5.825527 0.200069 1.113890 1.354735 3.528219 -0.731394 1.000000 -21.566000
H 5.645358 0.406296 1.272152 1.598122 -0.816862 -0.129220 0.062500 10.783000
H 3.395684 9.769975 3.253612 1.823620 -10.303675 1.297700 0.062500 10.783000
O 3.383553 9.800540 2.924532 3.460705 -1.455764 3.256801 1.000000 -21.566000
H 3.270741 9.522097 2.824379 5.859885 7.810948 11.289931 0.062500 10.783000
H 12.024414 1.170072 11.612556 11.837508 6.620842 -12.109292 0.062500 10.783000
O 11.913444 1.465880 11.654833 2.122380 -2.292116 1.042879 1.000000 -21.566000
H 11.578635 1.455559 11.634581 -0.480905 3.912207 -14.105457 0.062500 10.783000
H 6.417313 2.280516 0.723266 11.727347 7.171351 6.363728 0.062500 10.783000
O 6.126622 2.163526 0.799047 -0.524084 1.682652 -0.241868 1.000000 -21.566000
H 6.015953 2.055673 0.506580 -6.681686 -3.233412 -6.036006 0.062500 10.783000
H 9.001768 1.348526 13.804879 -10.957825 -12.325606 -5.120157 0.062500 10.783000
O 8.927825 1.652638 13.715808 -3.080041 -2.556024 -1.473145 1.000000 -21.566000
H 8.728635 1.651245 13.462292 -1.745768 -13.496845 -8.922678 0.062500 10.783000
H 11.869302 7.511786 1.058329 13.836996 9.680430 -0.275282 0.062500 10.783000
O 12.115000 7.294562 1.048449 0.722775 -1.127293 -0.536135 1.000000 -21.566000
H 12.084737 7.161253 0.762798 3.512602 0.485397 1.350751 0.062500 10.783000
H 8.090261 5.361832 4.313555 6.909236 -2.523464 4.715673 0.062500 10.783000
O 8.233200 5.503112 4.554167 0.256981 0.228893 -1.183839 1.000000 -21.566000
H 8.526298 5.513534 4.457578 -4.757548 20.093559 6.514385 0.062500 10.783000
H 6.942469 3.846879 5.435900 6.885114 11.542023 -9.881609 0.062500 10.783000
O 7.053976 3.879992 5.741872 1.401732 -1.402004 -0.175873 1.000000 -21.566000
H 7.230647 4.149061 5.730786 3.719657 -10.898405 20.667494 0.062500 10.783000
H 11.816171 0.902380 1.157603 -4.767554 6.229689 5.626461 0.062500 10.783000
O 11.593276 0.752102 1.330807 -1.462838 1.964928 1.560429 1.000000 -21.566000
H 11.607561 0.848123 1.649648 10.107107 8.819893 3.522831 0.062500 10.783000
H 4.994474 7.701439 13.411066 -0.096395 -13.006999 5.322843 0.062500 10.783000
O 4.681019 7.738734 13.466511 1.933100 0.482114 3.198574 1.000000 -21.566000
H 4.584443 7.471492 13.604827 9.372198 1.926719 2.466719 0.062500 10.783000
H 11.824200 13.998165 10.985279 -5.082108 -3.832557 -18.600136 0.062500 10.783000
O 11.945313 14.262286 10.842715 -3.200085 -1.038508 -3.808579 1.000000 -21.566000
H 12.223039 14.364039 10.982411 2.957326 13.154963 9.978331 0.062500 10.783000
H 13.706570 3.716458 11.877196 -8.513823 14.356730 5.667845 0.062500 10.783000
O 13.551406 3.653159 11.596820 2.483175 0.837403 3.142847 1.000000 -21.566000
H 13.561335 3.324112 11.561859 10.305881 -4.830988 -7.060205 0.062500 10.783000
H 11.319359 6.516853 1.319360 6.863720 0.822121 11.351097 0.062500 10.783000
O 11.452574 6.260120 1.195540 -1.094304 2.882948 3.983052 1.000000 -21.566000
H 11.240089 6.027152 1.150376 3.869668 3.148038 4.342610 0.062500 10.783000
H 11.139931 1.615516 0.837461 11.473999 6.419439 2.827827 0.062500 10.783000
O 11.305275 1.389291 0.681189 -1.608532 0.958755 0.095763 1.000000 -21.566000
H 11.284475 1.107643 0.847982 -2.690871 3.054267 -0.521238 0.062500 10.783000
H 1.283491 3.082185 4.891186 0.653733 -6.547275 0.804338 0.062500 10.783000
O 1.258805 3.381165 4.794543 -3.300442 1.230031 0.904328 1.000000 -21.566000
H 1.455266 3.547290 4.982927 -6.024839 2.377798 9.065612 0.062500 10.783000
H 14.592864 14.418258 1.201036 10.378360 -8.899689 3.049925 0.062500 10.783000
O 14.434682 14.159311 1.322821 -0.706872 -0.469493 3.214049 1.000000 -21.566000
H 14.114302 14.169111 1.242055 1.764665 -5.283616 4.337832 0.062500 10.783000
H 4.393663 5.529201 14.157153 9.247447 -6.281034 -2.973628 0.062500 10.783000
O 4.372578 5.819308 14.325702 1.330635 2.521071 -0.006974 1.000000 -21.566000
H 4.611940 6.010053 14.236337 2.284098 -14.324778 10.591584 0.062500 10.783000
H 7.438433 5.696744 14.165436 -0.629459 7.840608 3.033020 0.062500 10.783000
O 7.590772 5.445966 14.012494 0.950789 -0.817373 -2.858218 1.000000 -21.566000
H 7.840601 5.606965 13.866417 2.153347 6.161956 12.698762 0.062500 10.783000
H 7.691834 3.567866 0.811023 0.427490 -8.197507 -8.858806 0.062500 10.783000
O 7.550608 3.299720 0.881568 1.792433 -1.872018 -2.380425 1.000000 -21.566000
H 7.239563 3.361223 0.808229 4.668992 3.240606 -8.145244 0.062500 10.783000
H 2.439945 10.196761 0.171058 -9.560145 -6.939918 12.629112 0.062500 10.783000
O 2.318851 10.508776 0.153077 -0.464703 2.608200 -3.317572 1.000000 -21.566000
H 2.341665 10.619232 14.596727 -7.575916 -5.390829 -1.861565 0.062500 10.783000
H 9.765994 6.381850 12.157193 16.052226 15.110170 11.033306 0.062500 10.783000
O 9.666850 6.591981 12.376172 -0.098148 -0.253762 -4.352429 1.000000 -21.566000
H 9.868500 6.547873 12.619385 5.415542 5.215815 -15.005392 0.062500 10.783000
H 5.663521 7.867256 1.786061 -7.107981 -5.129628 -22.845582 0.062500 10.783000
O 5.828543 8.141994 1.729013 -0.996400 0.889203 -1.353402 1.000000 -21.566000
H 5.696160 8.381824 1.891809 4.839232 -2.702072 12.884340 0.062500 10.783000
H 11.750939 5.136431 5.106334 2.614356 -6.577767 1.779387 0.062500 10.783000
O 11.434866 5.140362 5.068744 1.024982 -0.760420 0.346362 1.000000 -21.566000
H 11.356654 5.451546 5.028067 -4.110381 -7.108047 0.608634 0.062500 10.783000
H 0.125993 9.630266 1.811519 -0.257359 3.079941 -0.004584 0.062500 10.783000
O 14.614828 9.489041 1.930675 1.538659 -0.827330 -0.001148 1.000000 -21.566000
H 14.707813 9.282995 2.153808 2.371166 9.918676 -18.449858 0.062500 10.783000
H 2.300983 10.101929 1.570725 -7.667524 -3.665138 0.547479 0.062500 10.783000
O 2.216041 9.838126 1.738621 2.364288 -1.160740 1.946189 1.000000 -21.566000
H 2.215944 9.914945 2.064596 -10.968218 1.493485 0.130519 0.062500 10.783000
H 2.920501 1.290683 2.713520 -1.631719 -1.695060 6.604863 0.062500 10.783000
O 2.635508 1.320427 2.581223 -0.391983 -4.518940 3.544364 1.000000 -21.566000
H 2.474099 1.596469 2.530236 0.839303 5.758667 -0.283170 0.062500 10.783000
H 11.535824 4.281481 13.067519 5.205138 -5.471130 -7.680178 0.062500 10.783000
O 11.579471 4.165564 12.774224 -2.952323 -1.462752 1.525121 1.000000 -21.566000
H 11.279044 4.151424 12.663390 -6.545021 -2.200698 10.772430 0.062500 10.783000
H 14.371163 4.650399 11.118775 4.321855 -6.889379 1.084789 0.062500 10.783000
O 14.696137 4.628635 11.144617 -2.859193 -2.340010 0.905354 1.000000 -21.566000
H 14.734674 4.899824 11.314709 5.991524 -0.639359 4.104620 0.062500 10.783000
H 0.595205 6.867340 2.856323 -14.435958 -8.732933 -13.131011 0.062500 10.783000
O 0.784529 7.011899 2.650969 4.648473 -1.164079 -0.902693 1.000000 -21.566000
H 0.816402 7.314621 2.756570 -5.619946 -9.543236 -11.036554 0.062500 10.783000
H 3.942800 3.087157 0.252548 -2.713574 -21.057620 4.873136 0.062500 10.783000
O 3.787208 3.186383 0.512516 -0.685173 1.604117 -0.183914 1.000000 -21.566000
H 4.006463 3.376820 0.658845 -6.000846 -6.113235 6.098075 0.062500 10.783000
H 1.723591 3.809777 14.254120 -13.882933 2.208473 6.755657 0.062500 10.783000
O 1.891175 3.575423 14.108284 1.559245 0.012247 -3.113067 1.000000 -21.566000
H 2.192026 3.565935 14.215414 5.554744 -2.626005 -4.419709 0.062500 10.783000
H 3.921277 2.459330 2.483496 -3.635851 2.762802 -2.071856 0.062500 10.783000
O 3.856869 2.176854 2.348935 -0.190488 0.673196 -1.221040 1.000000 -21.566000
H 3.926449 1.955466 2.572750 -4.533229 -12.378552 -4.800170 0.062500 10.783000
H 1.426980 8.442471 13.505764 -9.206824 3.903333 -8.180070 0.062500 10.783000
O 1.340441 8.606244 13.780273 0.392723 1.242408 -1.832676 1.000000 -21.566000
H 1.364521 8.920968 13.730540 -0.511392 -11.672683 -23.033311 0.062500 10.783000
H 5.832768 0.499487 6.776469 1.532754 -1.040820 0.549451 0.062500 10.783000
O 5.799080 0.575107 7.095132 -0.242011 0.731102 1.426345 1.000000 -21.566000
H 5.940371 0.347424 7.273059 -6.768371 7.785494 -1.962108 0.062500 10.783000
H 9.663960 5.032967 0.670181 -1.989039 -8.318641 4.885229 0.062500 10.783000
O 9.457159 5.206485 0.847309 -3.652997 0.474735 -4.870001 1.000000 -21.566000
H 9.342301 4.998940 1.069612 0.093513 2.157001 5.052898 0.062500 10.783000
H 5.884462 1.775334 2.233159 -1.776985 -9.483870 3.198204 0.062500 10.783000
O 5.705797 1.771735 1.964058 3.090834 -2.421885 -0.093328 1.000000 -21.566000
H 5.647156 1.478457 1.863915 4.045426 -2.018177 10.508289 0.062500 10.783000
H 9.482481 0.177745 1.354099 -1.094838 3.865780 1.025735 0.062500 10.783000
O 9.618219 0.244743 1.639618 1.096526 -2.575342 -1.022082 1.000000 -21.566000
H 9.693966 14.717531 1.790106 -12.227642 -5.031952 4.729416 0.062500 10.783000
H 0.652524 1.877433 13.593031 -1.704051 14.020798 -3.800737 0.062500 10.783000
O 0.760940 1.704362 13.841741 -0.862507 -2.349420 -0.316731 1.000000 -21.566000
H 0.911737 1.904508 14.046625 -3.964006 8.125970 9.289246 0.062500 10.783000
H 8.950409 2.228051 0.000085 6.782150 -8.550709 0.290285 0.062500 10.783000
O 8.711301 2.247371 0.221651 -0.903724 -0.818805 -1.638184 1.000000 -21.566000
H 8.662072 1.961388 0.371555 4.779874 -3.374472 0.901075 0.062500 10.783000
H 11.447898 3.609097 11.683789 -0.576619 -11.414024 -14.262971 0.062500 10.783000
O 11.328056 3.722119 11.967485 -0.265136 -0.758183 -2.807143 1.000000 -21.566000
H 11.263872 4.029239 11.909724 -3.465766 3.645333 -3.995246 0.062500 10.783000
H 7.949818 1.610309 1.394071 2.183694 8.015588 -3.754684 0.062500 10.783000
O 7.762899 1.756939 1.608772 0.355891 -1.469333 -1.862565 1.000000 -21.566000
H 7.568942 1.978717 1.483000 -20.804286 -8.283486 -3.712872 0.062500 10.783000
H 0.583196 6.463295 13.299195 1.695528 -3.063988 -12.589352 0.062500 10.783000
O 0.522564 6.214501 13.493937 -3.789845 2.125413 -1.245344 1.000000 -21.566000
H 0.816289 6.107354 13.519292 -13.394839 3.351944 3.702462 0.062500 10.783000
H 1.808582 1.155023 1.701997 -1.444208 -6.142596 -1.898408 0.062500 10.783000
O 1.522223 0.993922 1.655941 -1.760472 -0.934138 -0.000470 1.000000 -21.566000
H 1.495075 0.787984 1.894129 8.803099 -6.426857 -10.162206 0.062500 10.783000
H 6.175875 6.823438 1.174581 -2.075468 5.960819 14.095263 0.062500 10.783000
O 6.063983 6.666935 1.425794 3.424639 -0.555060 1.381588 1.000000 -21.566000
H 6.300744 6.584784 1.625212 -7.852334 -4.036686 -2.706249 0.062500 10.783000
H 7.711155 0.171502 2.287189 12.614902 5.091675 3.495764 0.062500 10.783000
O 7.622123 14.684641 2.508299 -3.218958 1.153762 2.971120 1.000000 -21.566000
H 7.541046 0.110379 2.775077 4.801915 -1.714241 1.896118 0.062500 10.783000
H 1.065750 4.681557 7.940815 -6.827379 6.689575 -11.327600 0.062500 10.783000
O 1.025093 4.648473 7.624773 0.477118 2.019880 1.259465 1.000000 -21.566000
H 1.103911 4.339896 7.546720 -2.872365 8.042423 -5.278581 0.062500 10.783000
H 14.195032 13.229867 2.767052 5.478824 2.548108 -9.549689 0.062500 10.783000
O 14.151666 13.547720 2.744416 -0.078854 0.258869 1.997338 1.000000 -21.566000
H 13.920835 13.593059 2.522947 -6.739408 -13.226153 -5.719509 0.062500 10.783000
H 1.230278 10.132294 9.553205 -4.996821 5.151083 10.804136 0.062500 10.783000
O 1.293585 9.810253 9.537060 3.828217 -0.538051 -2.759204 1.000000 -21.566000
H 1.371912 9.738148 9.245490 4.124045 9.516002 0.724103 0.062500 10.783000
H 4.006159 6.339508 4.390052 -16.990259 3.638297 5.984783 0.062500 10.783000
O 3.872028 6.127421 4.564674 -0.601897 -2.355456 -3.195386 1.000000 -21.566000
H 3.890717 6.147359 4.882913 0.034459 -4.611587 -6.326892 0.062500 10.783000
H 2.801084 6.026277 4.563954 2.386003 0.218642 11.208092 0.062500 10.783000
O 3.019777 5.783082 4.591487 3.119589 1.159082 3.997516 1.000000 -21.566000
H 3.299845 5.915340 4.521769 -4.566299 -9.765102 3.880741 0.062500 10.783000
H 3.384808 4.226827 0.533404 -8.064908 -3.186317 9.039829 0.062500 10.783000
O 3.240254 4.341170 0.801531 2.116666 -0.814005 -0.200916 1.000000 -21.566000
H 3.002664 4.157598 0.856690 3.413567 24.513869 1.628800 0.062500 10.783000
H 3.064939 9.674240 3.872571 -0.138604 -2.459938 -6.358392 0.062500 10.783000
O 3.370929 9.659063 3.768456 2.459077 2.535745 -2.127272 1.000000 -21.566000
H 3.564886 9.819507 3.986534 9.701964 6.375144 3.574784 0.062500 10.783000
H 11.140480 7.343295 14.343695 -7.272911 -0.374616 -0.532544 0.062500 10.783000
O 11.302190 7.109909 14.511842 1.165906 -1.715395 -2.791982 1.000000 -21.566000
H 11.626096 7.115513 14.450289 7.362973 -5.300632 -6.564683 0.062500 10.783000
H 12.959568 11.608329 8.091658 -3.732277 4.279438 -6.348644 0.062500 10.783000
O 12.995077 11.889234 8.250288 1.452436 -0.689467 4.701243 1.000000 -21.566000
H 12.746584 11.933996 8.427167 -4.533444 -7.688063 0.526980 0.062500 10.783000
H 13.635207 9.945155 0.059334 -8.850062 -16.686703 6.297671 0.062500 10.783000
O 13.914836 9.819258 0.122778 -2.143434 0.693437 -0.091068 1.000000 -21.566000
H 14.157346 10.020347 0.069666 -2.105657 1.935662 6.006551 0.062500 10.783000
H 9.036752 12.123679 4.719152 7.332585 5.629256 -13.904249 0.062500 10.783000
O 9.215500 11.865570 4.827155 0.784637 -1.675726 -3.042418 1.000000 -21.566000
H 9.462923 11.845285 4.618899 -3.402884 -6.924978 0.131936 0.062500 10.783000
H 10.447389 8.583916 6.237116 10.205134 7.701233 19.531529 0.062500 10.783000
O 10.394567 8.768878 5.972887 0.437144 0.815373 -3.038700 1.000000 -21.566000
H 10.214290 9.031635 6.064197 -15.605609 -3.929586 3.922224 0.062500 10.783000
H 14.519867 3.609494 0.083768 3.225832 -11.290604 -14.770215 0.062500 10.783000
O 14.477549 3.497838 0.388365 -5.025482 1.764780 -0.301828 1.000000 -21.566000
H 14.220303 3.609964 0.534956 -9.055177 -3.515219 9.653569 0.062500 10.783000
H 14.208956 8.491548 1.589944 2.844193 2.625755 -0.951893 0.062500 10.783000
O 14.485580 8.669385 1.608261 2.997339 -0.080258 2.173421 1.000000 -21.566000
H 14.369989 8.942849 1.740145 0.638621 7.255277 -3.545668 0.062500 10.783000
H 4.226853 0.531554 10.374351 2.913594 -9.481638 -3.265204 0.062500 10.783000
O 3.923834 0.442084 10.415307 0.789323 1.297732 2.908937 1.000000 -21.566000
H 3.779240 0.685534 10.228533 -4.000837 8.438011 0.384684 0.062500 10.783000
H 1.870428 10.163325 2.552447 -3.958351 -16.098145 -5.842717 0.062500 10.783000
O 2.158343 10.047554 2.648830 3.942286 -1.742412 -1.899120 1.000000 -21.566000
H 2.156779 9.774653 2.807867 -5.322591 4.067526 7.657991 0.062500 10.783000
H 8.930570 6.763797 4.275472 -1.256906 1.055662 -5.476906 0.062500 10.783000
O 8.766189 6.923606 4.047170 -0.836464 -0.828294 -3.979351 1.000000 -21.566000
H 8.862103 6.842041 3.752475 -7.565583 -8.200480 -8.860871 0.062500 10.783000
H 8.117582 10.681213 2.037591 9.593680 4.677383 3.868375 0.062500 10.783000
O 8.029961 10.439003 2.239447 -0.357667 2.036401 1.132183 1.000000 -21.566000
H 7.753349 10.294087 2.162710 10.545086 3.105826 -2.166444 0.062500 10.783000
H 0.245193 5.971214 2.398620 -10.826825 3.214622 -2.201133 0.062500 10.783000
O 14.738368 5.785340 2.356977 2.858916 2.406160 -2.111673 1.000000 -21.566000
H 14.493470 5.951313 2.234927 10.871473 9.427400 -4.029560 0.062500 10.783000
H 5.486847 5.048933 4.710506 -1.734654 -3.642520 -10.815029 0.062500 10.783000
O 5.607978 5.229063 4.479313 1.898639 0.539967 0.553693 1.000000 -21.566000
H 5.362536 5.409215 4.382439 1.040727 -4.591769 -2.710518 0.062500 10.783000
H 12.629073 8.962397 3.218369 6.004628 3.305219 -1.299150 0.062500 10.783000
O 12.595267 8.865078 2.912032 -2.706721 1.430199 -3.805924 1.000000 -21.566000
H 12.633096 9.146683 2.754782 15.824577 -1.077006 1.720778 0.062500 10.783000
H 7.870412 11.053865 7.800279 7.777314 -11.249989 -3.164074 0.062500 10.783000
O 8.029082 10.941358 7.541963 2.589013 -0.000685 0.091034 1.000000 -21.566000
H 7.871493 11.121299 7.320876 1.046901 7.458854 15.576955 0.062500 10.783000
H 6.778979 13.477750 12.640563 -15.498417 -0.825365 -1.987376 0.062500 10.783000
O 6.958136 13.306264 12.445434 -3.094071 2.386619 2.520202 1.000000 -21.566000
H 6.954106 13.008443 12.539598 5.692946 3.815785 -3.266391 0.062500 10.783000
H 6.571887 12.324375 14.593495 -4.840605 -13.955088 -0.633979 0.062500 10.783000
O 6.291610 12.194040 14.492651 0.267401 -0.176762 0.888351 1.000000 -21.566000
H 6.081543 12.428113 14.507203 7.719103 -7.302850 6.240820 0.062500 10.783000
H 10.316236 5.191932 7.179035 -8.897186 1.110233 0.722592 0.062500 10.783000
O 10.560407 5.132425 6.987945 -2.313820 1.636622 1.313904 1.000000 -21.566000
H 10.472908 5.252526 6.704203 4.926178 8.338544 6.057717 0.062500 10.783000
H 11.872183 10.935611 8.337789 11.319791 10.735986 -6.544448 0.062500 10.783000
O 12.119486 11.119152 8.368130 1.110131 0.671832 -1.156698 1.000000 -21.566000
H 12.049207 11.404705 8.325797 2.033226 -12.974293 2.269503 0.062500 10.783000
H 13.161406 5.227746 10.714092 -0.247398 -0.179783 -1.236232 0.062500 10.783000
O 13.169373 5.501294 10.890876 0.162294 2.267203 0.876787 1.000000 -21.566000
H 12.859764 5.575320 10.944495 -6.028881 3.000755 5.081281 0.062500 10.783000
H 12.922300 8.092205 0.802171 -9.623687 6.295476 -5.428080 0.062500 10.783000
O 12.935062 8.347097 0.616436 1.075780 1.406422 -3.308162 1.000000 -21.566000
H 12.985289 8.233630 0.312104 -10.342250 -4.658435 -2.649612 0.062500 10.783000
H 4.246851 8.201060 14.021057 -5.361529 -8.561140 -8.338249 0.062500 10.783000
O 3.998973 8.131208 14.198436 1.606859 -2.259807 1.116817 1.000000 -21.566000
H 3.992718 7.825088 14.265992 -1.273460 -4.961790 10.555407 0.062500 10.783000
H 6.232977 8.457455 13.012560 3.062167 11.505309 3.824346 0.062500 10.783000
O 5.955869 8.388288 12.853162 0.332888 0.928219 1.690910 1.000000 -21.566000
H 5.907124 8.665655 12.726608 7.931390 -12.079040 -11.451922 0.062500 10.783000
H 9.593321 0.578253 2.845335 6.028199 -1.009872 1.006930 0.062500 10.783000
O 9.534277 0.833892 2.654831 -0.673934 0.342340 -0.116280 1.000000 -21.566000
H 9.796989 0.954471 2.500688 -13.554959 1.175353 -11.920546 0.062500 10.783000
H 14.473693 5.467045 11.379406 0.179893 6.985671 26.887347 0.062500 10.783000
O 14.726666 5.367008 11.544032 0.976674 0.173704 1.107257 1.000000 -21.566000
H 0.043176 5.552059 11.811670 5.641980 1.693038 5.776644 0.062500 10.783000
H 9.614877 12.944201 14.061284 -2.875558 -4.117565 -3.570976 0.062500 10.783000
O 9.319250 13.013197 14.147315 0.543023 -2.188705 -3.718275 1.000000 -21.566000
H 9.162451 12.769934 14.281346 6.757485 2.013404 -4.025317 0.062500 10.783000
H 1.217924 13.701519 12.586038 16.542375 3.041276 1.994948 0.062500 10.783000
O 0.930717 13.571080 12.614797 0.171720 -2.902247 -1.473552 1.000000 -21.566000
H 0.767225 13.780391 12.805770 -10.565427 17.860966 0.151581 0.062500 10.783000
H 0.972348 8.265432 9.536789 -11.922322 11.119240 -5.608831 0.062500 10.783000
O 1.287988 8.344072 9.506383 0.738139 4.290425 0.687057 1.000000 -21.566000
H 1.439841 8.074521 9.397644 -3.537972 4.800336 -4.151269 0.062500 10.783000
H 7.355059 3.328100 1.828920 -5.437818 -12.292556 5.738685 0.062500 10.783000
O 7.596756 3.338968 2.027269 -1.089890 -1.959752 0.622941 1.000000 -21.566000
H 7.670521 3.057551 2.143516 0.687929 5.336729 10.859541 0.062500 10.783000
H 12.835797 3.166145 13.802602 2.880197 0.121442 5.611249 0.062500 10.783000
O 13.091520 2.969350 13.756652 -2.611827 -1.936748 0.186681 1.000000 -21.566000
H 13.336113 3.099335 13.918382 1.997204 0.295629 -7.505085 0.062500 10.783000
H 7.671413 9.866263 2.691730 -4.387429 -8.904061 -4.201819 0.062500 10.783000
O 7.731719 9.719322 2.981470 -0.078399 -0.594754 0.507695 1.000000 -21.566000
H 7.763984 9.395852 2.956849 6.289918 -1.745719 1.960804 0.062500 10.783000
H 11.171935 7.601825 2.636548 2.622378 -12.894431 -7.150861 0.062500 10.783000
O 10.956148 7.539343 2.877393 1.185139 -0.733182 -0.257469 1.000000 -21.566000
H 10.991382 7.266009 3.028736 1.106828 -7.187011 -4.758294 0.062500 10.783000
H 6.372943 8.269958 0.013727 -13.849685 -19.359308 -2.151709 0.062500 10.783000
O 6.386927 8.533099 0.205440 2.028791 0.307332 -0.608767 1.000000 -21.566000
H 6.082596 8.574408 0.289062 6.963154 3.515025 -5.450800 0.062500 10.783000
H 7.296521 8.862779 0.994981 4.572974 6.746948 -12.181743 0.062500 10.783000
O 7.530788 8.954879 1.203107 -3.129960 -0.408433 2.290677 1.000000 -21.566000
H 7.628361 9.223889 1.067797 -3.017086 -3.692206 -18.403418 0.062500 10.783000
H 9.260541 7.871196 5.418342 -9.632480 3.078338 -0.256494 0.062500 10.783000
O 8.979809 7.736225 5.474154 -1.542178 -0.047806 -0.350885 1.000000 -21.566000
H 8.996044 7.522129 5.229553 -11.652944 -9.063023 -6.399809 0.062500 10.783000
H 5.095224 9.744817 6.903434 -4.174255 -14.089528 -11.400845 0.062500 10.783000
O 5.040706 9.870544 7.196714 -0.775651 1.918808 -0.691258 1.000000 -21.566000
H 4.748086 9.954234 7.256328 -2.619371 -4.897649 12.435406 0.062500 10.783000
H 2.412536 4.068014 4.981168 -2.507923 -3.399877 8.521921 0.062500 10.783000
O 2.311254 4.196647 4.707614 2.096739 -0.340105 0.935087 1.000000 -21.566000
H 2.097885 4.419675 4.779347 6.239727 2.767880 5.047345 0.062500 10.783000
H 13.071024 7.177000 2.228430 -4.992775 6.487843 -4.638337 0.062500 10.783000
O 12.874297 6.936129 2.294705 -2.850013 0.293746 -4.524064 1.000000 -21.566000
H 12.690785 6.830682 2.051598 -2.581704 6.151805 -4.638819 0.062500 10.783000
H 6.257284 10.553025 12.852027 -0.126172 -4.745541 -8.026717 0.062500 10.783000
O 6.188997 10.767380 13.080915 0.957937 -0.767488 1.502874 1.000000 -21.566000
H 6.330785 10.631481 13.339028 3.401738 -12.052763 -3.800615 0.062500 10.783000
H 1.914519 5.703663 8.053776 15.265353 -2.001304 -5.008826 0.062500 10.783000
O 1.930673 5.715628 7.738150 -2.181559 4.286256 -3.152174 1.000000 -21.566000
H 2.160258 5.514911 7.651153 -0.874716 12.793958 -0.809795 0.062500 10.783000
H 6.778898 8.209197 2.229905 -2.031429 -3.274354 -7.339778 0.062500 10.783000
O 6.853261 7.905717 2.251353 -2.157039 -2.810088 0.251137 1.000000 -21.566000
H 6.642227 7.698954 2.129727 4.038750 -2.478619 -2.592778 0.062500 10.783000
H 13.639242 10.333042 10.923691 0.824731 -21.721126 -0.828264 0.062500 10.783000
O 13.842845 10.550463 11.074211 -2.926828 0.652089 -1.701437 1.000000 -21.566000
H 13.846457 10.841322 10.942115 11.470691 1.782623 2.405178 0.062500 10.783000
H 2.697800 0.583359 3.821970 2.577195 2.613176 9.335551 0.062500 10.783000
O 2.831079 0.531935 3.543972 -2.855288 1.509266 -0.932227 1.000000 -21.566000
H 2.609410 0.526856 3.302349 -9.357929 -2.252559 -1.401799 0.062500 10.783000
H 10.929231 4.244903 2.213525 17.614885 -9.810319 -0.668160 0.062500 10.783000
O 10.765377 4.520396 2.172724 -4.013590 -2.890932 -2.028587 1.000000 -21.566000
H 10.655960 4.558362 2.467824 7.883503 9.948011 17.008772 0.062500 10.783000
H 13.003795 11.273970 10.104289 1.236072 -6.510008 -3.245980 0.062500 10.783000
O 13.115752 11.080019 10.324966 -0.810163 -3.162830 0.078701 1.000000 -21.566000
H 12.880025 10.900790 10.451116 -2.466477 8.394131 -0.446648 0.062500 10.783000
H 6.699027 11.614759 2.694354 15.042620 -10.448842 1.500060 0.062500 10.783000
O 6.676759 11.413188 2.450651 1.640006 1.147260 0.969307 1.000000 -21.566000
H 6.465043 11.552421 2.242437 -2.360946 -4.350689 -5.161828 0.062500 10.783000
H 12.233450 9.638786 10.180535 1.996142 11.679557 -5.310393 0.062500 10.783000
O 12.095658 9.910220 10.275917 -1.041061 0.122407 3.791244 1.000000 -21.566000
H 11.768570 9.884269 10.270749 -7.628336 -0.227431 6.139520 0.062500 10.783000
H 10.923133 11.682250 3.719079 -3.690137 -4.427617 15.371601 0.062500 10.783000
O 10.704253 11.534694 3.537436 -0.513637 2.344631 -1.483300 1.000000 -21.566000
H 10.727080 11.198736 3.573411 9.927379 -5.217257 -1.638510 0.062500 10.783000
H 12.875560 7.671259 6.091993 5.775988 -6.388176 -4.391736 0.062500 10.783000
O 12.899097 7.666060 5.766706 -2.615548 -2.953878 0.076104 1.000000 -21.566000
H 13.149379 7.489311 5.685016 11.295115 -6.353024 10.919893 0.062500 10.783000
H 0.037607 11.723677 10.669647 -4.442847 -9.036272 2.917712 0.062500 10.783000
O 0.240128 11.740617 10.922259 0.457783 -2.521333 -1.499754 1.000000 -21.566000
H 0.518275 11.581295 10.874194 -4.080418 -8.426836 7.143145 0.062500 10.783000
H 10.404452 13.644434 9.911563 -3.760502 5.770976 -1.976477 0.062500 10.783000
O 10.460017 13.338283 9.977227 2.664706 -0.092679 -0.551994 1.000000 -21.566000
H 10.356728 13.168061 9.709133 5.722921 -3.300597 8.379865 0.062500 10.783000
H 0.932322 11.314662 5.171977 -1.946369 13.501380 -12.167154 0.062500 10.783000
O 0.788513 11.575114 5.084755 1.499278 1.526158 2.160785 1.000000 -21.566000
H 0.514743 11.637211 5.233364 -1.599431 14.313668 -12.737933 0.062500 10.783000
H 1.334888 1.677952 11.146039 1.146338 -5.094261 -0.004955 0.062500 10.783000
O 1.183944 1.643562 10.855764 3.247835 -3.169130 1.515870 1.000000 -21.566000
H 1.133561 1.330529 10.817337 7.433373 -3.533276 -7.669034 0.062500 10.783000
H 3.692672 14.037393 12.893068 -8.496209 6.181975 -1.523131 0.062500 10.783000
O 3.713386 13.785097 13.102301 -2.656543 1.737842 1.858600 1.000000 -21.566000
H 3.522445 13.556170 12.979383 -0.909060 4.909651 -11.108748 0.062500 10.783000
H 14.516584 12.033115 0.783512 0.052931 12.857832 9.479554 0.062500 10.783000
O 14.677698 11.862950 0.986060 -0.076581 -0.115316 1.053718 1.000000 -21.566000
H 0.232832 11.976080 0.997801 -3.521055 6.450144 -0.661099 0.062500 10.783000
H 5.711244 9.564364 2.165186 3.650613 -2.915701 -8.558452 0.062500 10.783000
O 5.827681 9.801112 2.341263 1.625493 1.012854 -0.862622 1.000000 -21.566000
H 5.611954 10.032418 2.356330 -4.816646 -6.762348 6.074084 0.062500 10.783000
H 2.878624 9.619428 12.682265 13.490100 11.174866 -13.434780 0.062500 10.783000
O 2.673485 9.808078 12.838459 3.363169 2.325746 -2.626037 1.000000 -21.566000
H 2.648096 10.063036 12.650342 4.148719 3.422659 -1.247828 0.062500 10.783000
H 5.625630 0.878128 2.043491 0.338170 9.529417 2.710254 0.062500 10.783000
O 5.611623 0.837904 2.362415 -0.434479 -0.320126 -1.518083 1.000000 -21.566000
H 5.917952 0.773513 2.435615 1.556019 3.063828 -2.692360 0.062500 10.783000
H 4.038920 12.738968 0.882911 -8.338470 -0.033575 11.242193 0.062500 10.783000
O 4.354130 12.679411 0.889207 -3.391255 0.488362 4.454485 1.000000 -21.566000
H 4.441144 12.968037 0.765981 2.994989 -7.588047 -9.067134 0.062500 10.783000
H 3.808087 2.867792 3.078320 -1.606154 -7.794144 6.613738 0.062500 10.783000
O 3.998903 2.933658 2.830884 2.037116 2.305537 3.663974 1.000000 -21.566000
H 4.201091 3.171397 2.903289 -9.357442 9.101499 -17.099350 0.062500 10.783000
H 9.284023 8.222338 14.699818 11.196627 10.310148 -4.352297 0.062500 10.783000
O 9.330971 7.946419 0.127731 -1.121705 1.212269 -0.980058 1.000000 -21.566000
H 9.112016 7.899263 0.371214 -9.263592 -8.940320 -2.820906 0.062500 10.783000
H 6.552500 10.189721 0.681643 10.384642 6.541097 0.966897 0.062500 10.783000
O 6.574208 10.337746 0.966588 -0.045620 0.410343 3.083024 1.000000 -21.566000
H 6.537212 10.096127 1.183983 -14.851281 5.919456 -4.976250 0.062500 10.783000
H 4.835492 9.038532 14.691054 1.895267 -5.689968 9.046694 0.062500 10.783000
O 4.883408 9.064114 0.268776 -2.965299 1.215614 3.342121 1.000000 -21.566000
H 4.739085 8.799331 0.371517 6.187040 5.549276 -1.282261 0.062500 10.783000
H 10.719204 4.038047 6.278202 7.308132 -0.423850 -5.511131 0.062500 10.783000
O 10.940338 4.263915 6.280244 -0.075324 -1.776821 -1.651300 1.000000 -21.566000
H 10.897856 4.466940 6.029792 4.639689 -13.851814 -8.782911 0.062500 10.783000
H 10.224841 7.299520 5.925819 -2.385742 0.640536 -3.021957 0.062500 10.783000
O 9.934716 7.186351 5.948496 0.585385 -0.193117 0.274895 1.000000 -21.566000
H 9.757347 7.419994 6.088198 3.005418 6.730329 -1.323945 0.062500 10.783000
H 4.291694 9.297937 10.519000 -7.998294 -2.453979 -10.363229 0.062500 10.783000
O 4.549332 9.245174 10.714942 -0.932949 -4.395487 -1.263850 1.000000 -21.566000
H 4.748421 9.017329 10.635420 3.399266 9.106038 -2.281568 0.062500 10.783000
H 3.598968 9.086436 1.172678 2.323470 6.294256 5.010848 0.062500 10.783000
O 3.589487 9.366277 1.316837 -0.105408 0.925990 0.676986 1.000000 -21.566000
H 3.693344 9.600065 1.114145 -12.253639 18.748040 2.756113 0.062500 10.783000
H 4.750590 12.284635 8.706147 1.057999 7.202183 -12.623509 0.062500 10.783000
O 4.886751 12.060955 8.530254 2.339941 -0.332589 1.637600 1.000000 -21.566000
H 5.015836 12.214333 8.271928 1.981304 1.043756 -0.532397 0.062500 10.783000
H 5.001079 6.353913 7.976978 -14.046969 -1.726145 -17.694340 0.062500 10.783000
O 4.727822 6.515692 7.961066 1.171000 -2.055584 1.473028 1.000000 -21.566000
H 4.794307 6.827601 7.913460 -1.886463 -5.129004 14.465041 0.062500 10.783000
H 14.639503 13.565979 11.414185 13.972363 -2.245506 -9.226648 0.062500 10.783000
O 14.373341 13.423829 11.317226 -2.329252 -1.509844 -0.557961 1.000000 -21.566000
H 14.450401 13.121674 11.359621 14.625499 2.154112 2.752505 0.062500 10.783000
H 10.275933 10.580687 12.686582 -3.928617 9.326195 9.301978 0.062500 10.783000
O 10.134389 10.364117 12.492501 -4.207098 -1.698440 2.197516 1.000000 -21.566000
H 10.033058 10.548792 12.245514 2.522974 -3.029026 -6.113335 0.062500 10.783000
H 1.046921 8.036553 6.429716 0.145279 3.283832 -3.472292 0.062500 10.783000
O 0.930315 8.227295 6.207291 -0.163479 1.459494 -3.859874 1.000000 -21.566000
H 0.667710 8.355271 6.333305 0.544753 -3.284480 12.166929 0.062500 10.783000
H 6.995682 10.812141 4.377934 -6.970757 -4.877638 -12.469127 0.062500 10.783000
O 6.768263 10.755996 4.607151 -0.162912 -0.633671 -5.154971 1.000000 -21.566000
H 6.631337 10.474270 4.570166 2.034875 3.335404 4.131789 0.062500 10.783000
H 5.028809 1.687973 2.321246 6.372401 10.676954 7.530663 0.062500 10.783000
O 4.940716 1.425343 2.493295 1.973998 0.093895 -2.615329 1.000000 -21.566000
H 5.171892 1.216266 2.441951 2.437674 -2.277404 -5.622535 0.062500 10.783000
H 6.565852 10.301801 12.054273 -9.034810 10.880767 -6.656664 0.062500 10.783000
O 6.461721 10.508348 11.840685 -1.450524 -2.876136 -2.209178 1.000000 -21.566000
H 6.189327 10.429933 11.687875 -9.782515 4.113330 9.885299 0.062500 10.783000
H 8.061261 8.996832 3.885046 1.415034 11.763437 1.196647 0.062500 10.783000
O 7.931888 9.169974 4.121629 -1.723949 -1.178782 -2.086020 1.000000 -21.566000
H 8.132368 9.403533 4.214745 -9.707873 -15.664512 5.524803 0.062500 10.783000
H 12.934575 9.413694 13.713717 -2.829540 -1.455430 -2.525159 0.062500 10.783000
O 12.725639 9.168731 13.646836 -1.914361 -2.113671 3.738244 1.000000 -21.566000
H 12.486906 9.264665 13.457433 -9.568279 -7.342944 -3.851282 0.062500 10.783000
H 12.100485 11.449308 5.647554 7.708365 4.556448 10.188836 0.062500 10.783000
O 12.012409 11.574497 5.922363 -0.641519 0.206112 1.043087 1.000000 -21.566000
H 12.063970 11.899759 5.953751 -11.592766 -6.665115 2.551074 0.062500 10.783000
H 10.083862 9.971872 4.934042 -3.624653 -5.189952 3.599811 0.062500 10.783000
O 9.866787 9.751465 4.845350 -4.339747 -0.420707 1.423049 1.000000 -21.566000
H 10.058686 9.489020 4.835358 -6.796408 -0.184106 19.888019 0.062500 10.783000
H 7.163650 12.457631 6.872613 0.807900 0.915690 3.460123 0.062500 10.783000
O 7.402317 12.526703 7.074126 1.028509 -4.686379 -1.288439 1.000000 -21.566000
H 7.354157 12.824798 7.174596 3.799335 -4.347156 -4.715868 0.062500 10.783000
H 10.939305 14.733733 3.210827 5.027780 1.086744 9.176619 0.062500 10.783000
O 10.702737 0.196664 3.201562 -0.883675 -2.981704 4.381029 1.000000 -21.566000
H 10.804965 0.498702 3.128589 3.918327 -7.092540 -1.562234 0.062500 10.783000
H 10.351187 12.709604 7.155383 9.244616 7.876931 3.561693 0.062500 10.783000
O 10.483977 12.701207 7.451483 -1.550797 -1.194220 0.822560 1.000000 -21.566000
H 10.391392 12.445258 7.624055 5.512833 1.103388 14.031949 0.062500 10.783000
H 1.018324 8.596161 14.171033 -7.724108 -1.385357 -10.218701 0.062500 10.783000
O 0.783028 8.588857 14.394410 0.726713 -4.059705 -3.588962 1.000000 -21.566000
H 0.739310 8.891035 14.512241 4.450891 -3.261173 -4.335899 0.062500 10.783000
H 8.455829 5.467175 5.118661 -6.847710 -0.577983 -9.715829 0.062500 10.783000
O 8.663213 5.293161 5.286019 1.001289 5.571248 1.526088 1.000000 -21.566000
H 8.927997 5.456777 5.225689 4.012823 6.677899 21.916530 0.062500 10.783000
H 12.634106 10.306421 7.145309 -0.198263 -12.067239 -4.240271 0.062500 10.783000
O 12.911395 10.367302 7.299266 -0.152690 -2.240386 3.266935 1.000000 -21.566000
H 13.176667 10.241124 7.164858 -10.266502 9.900946 -0.821332 0.062500 10.783000
H 0.271472 2.747878 4.005994 -1.501975 -0.295509 2.332728 0.062500 10.783000
O 0.186709 2.463177 3.875684 -1.376856 0.521422 -1.066939 1.000000 -21.566000
H 0.104157 2.312590 4.160486 -4.471489 -2.952352 8.599609 0.062500 10.783000
H 1.579529 11.461846 5.336613 -0.254575 -13.553889 1.037919 0.062500 10.783000
O 1.698740 11.440830 5.031984 3.836232 1.357828 -3.376599 1.000000 -21.566000
H 1.850376 11.160856 5.042328 -7.972405 -5.134813 -1.664489 0.062500 10.783000
H 0.318061 1.359113 11.771693 -10.940054 4.727888 8.314985 0.062500 10.783000
O 0.136936 1.624489 11.799207 2.965621 2.482042 1.369529 1.000000 -21.566000
H 0.231559 1.843872 11.581461 3.833866 0.593060 -2.113333 0.062500 10.783000
H 6.701206 9.586704 5.810767 13.257000 -2.002773 24.911105 0.062500 10.783000
O 6.782821 9.816312 5.601519 1.952475 -1.495491 0.684597 1.000000 -21.566000
H 6.984346 10.000755 5.765174 0.548038 -9.409524 7.979602 0.062500 10.783000
H 8.598151 9.452163 7.074755 16.319274 0.398644 -13.242098 0.062500 10.783000
O 8.905645 9.376894 7.030293 4.379974 3.151262 -0.809361 1.000000 -21.566000
H 9.005368 9.513317 6.751890 1.533612 6.954022 6.289822 0.062500 10.783000
H 12.994562 1.862051 0.143642 -9.453488 9.212786 0.850237 0.062500 10.783000
O 12.747011 1.805730 0.345505 -2.066741 0.342018 0.661983 1.000000 -21.566000
H 12.480300 1.785636 0.169430 -10.235070 -5.855883 12.330950 0.062500 10.783000
H 7.737488 1.128400 6.004614 8.201646 9.079724 0.579763 0.062500 10.783000
O 7.941750 1.294854 6.205332 -2.777855 -2.153903 2.050412 1.000000 -21.566000
H 8.234096 1.156040 6.217658 8.827600 -4.831712 7.975928 0.062500 10.783000
H 8.666159 6.016994 7.488291 -2.338898 4.196495 -1.345399 0.062500 10.783000
O 8.634329 6.228682 7.243788 1.193740 0.643722 1.722472 1.000000 -21.566000
H 8.827167 6.109236 7.027277 -4.652738 -1.427172 5.977350 0.062500 10.783000
H 10.962329 1.822107 1.943909 1.060062 -0.862321 -0.453368 0.062500 10.783000
O 11.023176 1.619108 2.168513 -2.682486 1.683840 1.091143 1.000000 -21.566000
H 10.814880 1.384048 2.149747 0.853687 -0.794158 0.013420 0.062500 10.783000
H 11.765579 10.764145 0.788094 5.415473 -5.301404 -2.617439 0.062500 10.783000
O 11.729890 10.487786 0.609447 1.042540 -0.919366 -1.664044 1.000000 -21.566000
H 11.784314 10.244432 0.801941 -4.471812 12.871689 -0.678924 0.062500 10.783000
H 7.727293 11.533767 11.661424 10.756066 0.946494 -7.835004 0.062500 10.783000
O 7.905426 11.445377 11.922479 0.044097 1.033635 0.766027 1.000000 -21.566000
H 7.895464 11.122620 11.914170 1.809078 10.763074 3.472049 0.062500 10.783000
H 13.966609 3.067537 1.773071 4.538552 -2.121372 15.810546 0.062500 10.783000
O 14.141294 3.148059 2.021851 -0.060671 -1.135104 -3.152405 1.000000 -21.566000
H 14.440082 3.080625 1.950057 -3.275589 4.710000 -7.775338 0.062500 10.783000
H 9.736432 13.967891 3.773934 4.435333 -10.414005 2.320428 0.062500 10.783000
O 9.989327 14.106880 3.648113 -1.861666 -0.138220 -1.568695 1.000000 -21.566000
H 10.218546 13.904879 3.583170 5.812926 3.539245 8.178451 0.062500 10.783000
H 9.517147 11.609293 0.464431 7.872276 -5.113318 0.654291 0.062500 10.783000
O 9.570032 11.743874 0.754544 -1.106423 -1.918485 -1.060586 1.000000 -21.566000
H 9.782003 11.978139 0.704654 0.462497 -8.836859 1.126314 0.062500 10.783000
H 5.784582 12.546900 6.803526 0.741201 -0.920205 -0.847581 0.062500 10.783000
O 5.813493 12.680193 6.502352 2.365352 -2.409917 -2.996193 1.000000 -21.566000
H 5.703135 12.481504 6.278181 0.692698 -2.714484 -2.480884 0.062500 10.783000
H 13.191831 12.749836 13.776377 -7.599211 3.011949 5.530690 0.062500 10.783000
O 13.175701 13.068948 13.833899 -0.557032 -1.635528 0.000233 1.000000 -21.566000
H 12.986919 13.226702 13.610641 -3.550077 2.142282 3.042116 0.062500 10.783000
H 10.844300 11.292522 2.459137 -6.703283 -1.440119 -18.871006 0.062500 10.783000
O 11.139306 11.300461 2.597032 -2.477734 0.329930 0.244757 1.000000 -21.566000
H 11.128517 11.312946 2.915764 13.599256 -0.186819 6.534313 0.062500 10.783000
H 12.718676 1.699839 6.858127 1.970246 2.541618 7.329419 0.062500 10.783000
O 12.528096 1.796757 6.616073 -0.965849 -0.536046 -2.197835 1.000000 -21.566000
H 12.199328 1.782569 6.680259 1.127604 -2.988132 -1.241830 0.062500 10.783000
H 6.241588 14.183449 13.054038 2.892588 -21.429310 -23.698546 0.062500 10.783000
O 6.055043 14.438468 12.950738 0.050562 -0.141004 -1.856011 1.000000 -21.566000
H 5.767354 14.431127 13.105321 -4.083530 12.851780 5.558125 0.062500 10.783000
H 9.825970 14.574608 3.076488 -9.812663 1.609546 1.511899 0.062500 10.783000
O 9.793846 0.147719 3.148621 -1.628008 3.028113 0.163030 1.000000 -21.566000
H 10.093734 0.220893 3.218910 -15.441698 -0.034997 -0.053864 0.062500 10.783000
H 9.725714 0.317168 4.069203 6.300678 -2.356801 -2.881293 0.062500 10.783000
O 9.449637 0.379579 3.921355 -0.461947 1.092490 -0.486677 1.000000 -21.566000
H 9.535870 0.291209 3.625906 6.921115 4.005222 4.809358 0.062500 10.783000
H 8.698275 0.264894 7.718492 2.779242 7.374449 4.813163 0.062500 10.783000
O 8.387691 0.217913 7.628869 -3.499886 -3.542912 1.775507 1.000000 -21.566000
H 8.204761 0.374811 7.843478 -3.425770 -0.696621 7.540612 0.062500 10.783000
H 13.928279 0.434628 3.272457 -4.427800 -9.143021 2.051055 0.062500 10.783000
O 14.155915 0.256435 3.147335 2.097812 0.691186 -1.958218 1.000000 -21.566000
H 14.179933 14.710590 3.291177 0.314163 1.396504 -5.295452 0.062500 10.783000
H 8.330573 6.944149 6.139564 2.723049 -1.633636 12.152996 0.062500 10.783000
O 8.476368 6.686405 6.015103 0.071752 -4.510338 0.880031 1.000000 -21.566000
H 8.241864 6.459493 6.006137 -6.339868 -0.933341 1.533349 0.062500 10.783000
H 2.507188 14.734900 14.723143 7.369756 -4.154910 -15.232431 0.062500 10.783000
O 2.466421 14.450113 0.100566 -0.221544 -1.754962 2.788186 1.000000 -21.566000
H 2.393311 14.218965 14.608541 -4.926834 -9.409138 0.030668 0.062500 10.783000
H 2.613294 11.292077 10.840595 -0.309220 -11.791949 -4.550676 0.062500 10.783000
O 2.631322 10.973419 10.831403 -2.562878 1.865663 -0.270711 1.000000 -21.566000
H 2.830285 10.887827 10.597871 4.151964 5.618916 5.243166 0.062500 10.783000
H 13.196043 13.572664 4.163270 -9.929045 5.438753 4.792335 0.062500 10.783000
O 13.043316 13.586478 3.890006 -0.621718 0.064939 2.367783 1.000000 -21.566000
H 12.966243 13.300857 3.788857 -15.146077 5.327060 2.759380 0.062500 10.783000
H 1.523548 12.673505 5.005522 -1.820667 15.147347 -1.085684 0.062500 10.783000
O 1.721543 12.901976 4.903260 -1.796417 -0.801135 -0.900920 1.000000 -21.566000
H 1.664473 12.991777 4.595060 -2.746640 8.087241 -3.199049 0.062500 10.783000
H 12.822340 11.799253 13.634416 11.891136 -8.412471 -4.172314 0.062500 10.783000
O 12.963023 12.085255 13.650741 1.449349 3.223629 1.263410 1.000000 -21.566000
H 13.051788 12.135655 13.941442 8.478307 -9.420114 -5.910948 0.062500 10.783000
H 4.674919 6.649654 4.206925 0.893258 3.652244 -5.226779 0.062500 10.783000
O 4.571911 6.375634 4.063508 1.116527 1.009536 -2.421926 1.000000 -21.566000
H 4.477494 6.414181 3.761794 -4.237181 1.769454 -8.059536 0.062500 10.783000
H 7.985091 13.455469 0.063799 -10.203761 -5.990208 -4.481940 0.062500 10.783000
O 8.079002 13.361347 14.488406 -1.509715 1.115321 -5.151748 1.000000 -21.566000
H 8.048065 13.639463 14.308134 10.121073 1.658516 -3.589202 0.062500 10.783000
H 6.825563 12.338768 6.163482 -1.893962 -14.489433 1.649136 0.062500 10.783000
O 6.919627 12.429996 5.868863 0.498743 -0.330143 -0.552571 1.000000 -21.566000
H 7.240333 12.493470 5.890652 0.810158 -2.959209 -4.495225 0.062500 10.783000
H 9.508148 10.784307 1.754231 12.516592 4.286941 -7.232530 0.062500 10.783000
O 9.354161 10.542698 1.895948 3.297033 3.509887 -2.303087 1.000000 -21.566000
H 9.403760 10.596333 2.198911 -0.899670 -6.786572 -7.328281 0.062500 10.783000
H 11.266584 3.141706 13.887392 -2.854319 -15.773127 0.130512 0.062500 10.783000
O 10.969346 3.105739 13.997219 -0.491646 -2.359875 4.094612 1.000000 -21.566000
H 10.773919 3.278001 13.822546 -11.917041 -2.048091 -3.394734 0.062500 10.783000
H 11.585078 2.123718 3.083621 2.832925 -10.430380 -3.587290 0.062500 10.783000
O 11.515499 2.410790 2.935569 0.083254 -0.689694 0.751781 1.000000 -21.566000
H 11.523756 2.330383 2.620670 9.168396 2.526089 12.331642 0.062500 10.783000
H 1.855489 0.317058 0.943265 -0.163186 1.083401 -13.599023 0.062500 10.783000
O 1.545404 0.390089 1.005664 2.193756 2.157697 -1.595345 1.000000 -21.566000
H 1.503354 0.649211 1.180829 2.546459 -3.748504 10.072387 0.062500 10.783000
H 6.950012 12.811989 3.350189 3.173466 1.981630 4.202045 0.062500 10.783000
O 6.643625 12.795059 3.451194 -0.329034 1.217491 -0.896248 1.000000 -21.566000
H 6.575412 12.478531 3.409675 -8.154462 -1.489480 1.085642 0.062500 10.783000
H 11.880681 3.249054 13.113895 0.143157 11.409299 -14.823395 0.062500 10.783000
O 11.777302 3.150439 13.417203 1.027046 -1.719001 4.015214 1.000000 -21.566000
H 11.931761 3.383625 13.593089 7.003005 -4.821732 -5.712912 0.062500 10.783000
H 9.138559 1.510439 7.409577 -7.435491 -3.744434 -6.201205 0.062500 10.783000
O 9.129384 1.818327 7.429903 0.418331 -3.015088 1.339029 1.000000 -21.566000
H 9.244130 1.981663 7.176193 9.572125 -6.588775 -4.269614 0.062500 10.783000
H 9.462650 10.362469 9.473427 -6.504492 -1.174516 3.274741 0.062500 10.783000
O 9.775300 10.306067 9.580116 1.294196 -0.664576 -2.855866 1.000000 -21.566000
H 9.733484 10.146996 9.862871 -3.437884 10.966249 11.792801 0.062500 10.783000
H 11.325794 4.227170 5.053984 1.852260 0.064261 -18.563763 0.062500 10.783000
O 11.060605 4.037193 5.042405 1.479097 1.552546 2.632325 1.000000 -21.566000
H 11.156188 3.757321 5.165695 -9.643483 -0.998222 -11.687308 0.062500 10.783000
H 10.488290 9.479408 9.897214 2.319782 6.012737 8.547445 0.062500 10.783000
O 10.590299 9.363575 10.170056 0.918202 1.347130 1.552744 1.000000 -21.566000
H 10.534288 9.064218 10.237121 11.236490 13.146891 13.395232 0.062500 10.783000
H 14.496161 8.716702 14.250960 5.260203 9.379854 -13.220179 0.062500 10.783000
O 14.676995 8.462377 14.177720 2.164211 -1.401599 1.197963 1.000000 -21.566000
H 0.235474 8.502509 14.251663 -8.778412 -8.377481 3.951954 0.062500 10.783000
H 0.074732 1.002306 5.168374 -4.836607 -7.006004 -3.888704 0.062500 10.783000
O 0.278084 1.183027 4.999373 -1.963123 -0.012448 1.003468 1.000000 -21.566000
H 0.563237 1.073821 5.128506 5.001257 1.074857 19.032015 0.062500 10.783000
H 12.173319 12.549882 3.438047 -1.628825 8.001526 -4.248118 0.062500 10.783000
O 12.134802 12.633879 3.139114 -1.765267 0.968066 1.861656 1.000000 -21.566000
H 12.367657 12.608571 2.907204 -6.005065 2.768041 -4.991745 0.062500 10.783000
H 2.167742 11.237398 2.047870 3.450158 3.943317 -8.888816 0.062500 10.783000
O 1.853678 11.202846 1.950552 1.233993 1.187175 3.406756 1.000000 -21.566000
H 1.740490 11.511418 1.909621 -5.942791 7.742065 13.003397 0.062500 10.783000
H 0.156621 1.968925 10.317931 -9.510458 2.316557 -2.765464 0.062500 10.783000
O 0.325910 2.004573 10.055716 0.086579 2.763096 -1.086739 1.000000 -21.566000
H 0.624050 2.095118 10.153550 -10.945389 8.695372 14.438355 0.062500 10.783000
H 14.496376 4.363870 14.712077 -7.599056 19.706899 -6.462834 0.062500 10.783000
O 14.481238 4.499190 0.244956 1.121295 -1.183666 1.712147 1.000000 -21.566000
H 14.699571 4.730981 0.236578 1.314411 3.094386 -3.387070 0.062500 10.783000
H 2.531012 1.035120 8.763831 9.329657 16.164361 15.495224 0.062500 10.783000
O 2.470349 1.356766 8.738853 0.286597 -0.579305 1.935322 1.000000 -21.566000
H 2.757819 1.472738 8.640002 4.763836 -11.539753 4.952387 0.062500 10.783000
H 4.255379 2.189487 2.109091 -1.896765 -7.260490 3.242859 0.062500 10.783000
O 4.544684 2.197969 1.949746 4.016960 -1.097090 1.439051 1.000000 -21.566000
H 4.584310 1.903824 1.808077 11.711500 -8.787784 2.837686 0.062500 10.783000
H 9.074153 3.467690 5.389962 -12.392409 -7.834928 4.888623 0.062500 10.783000
O 8.947627 3.222035 5.226297 0.428710 -1.497865 4.675511 1.000000 -21.566000
H 9.049438 2.934646 5.352830 10.628962 -6.721991 1.478249 0.062500 10.783000
H 7.620113 7.584982 9.650164 -5.979574 6.831925 16.562650 0.062500 10.783000
O 7.905052 7.719092 9.714262 -0.943862 0.186774 -1.118220 1.000000 -21.566000
H 8.042901 7.502957 9.900329 14.775775 3.682262 -0.243966 0.062500 10.783000
H 12.497931 13.549183 5.783277 -2.883017 5.081880 0.790166 0.062500 10.783000
O 12.214632 13.693799 5.833466 -4.111614 1.720035 1.130898 1.000000 -21.566000
H 12.114143 13.804251 5.537800 3.786847 3.365923 -6.611033 0.062500 10.783000
H 7.322042 3.608356 2.439419 10.853852 1.272714 3.148073 0.062500 10.783000
O 7.168944 3.825186 2.628680 -0.333282 -1.167223 0.067977 1.000000 -21.566000
H 7.048783 4.071826 2.457124 -11.421153 3.397212 -2.901771 0.062500 10.783000
H 11.246013 12.683882 0.185930 4.338950 -0.252389 10.382944 0.062500 10.783000
O 11.315158 12.401045 0.318525 -2.406301 -2.354688 2.496106 1.000000 -21.566000
H 11.310186 12.425056 0.644794 -15.243196 8.665664 8.063744 0.062500 10.783000
H 9.493595 2.769599 4.643269 -17.955585 0.351084 5.362164 0.062500 10.783000
O 9.325774 2.552127 4.469955 -1.017071 2.838347 0.324367 1.000000 -21.566000
H 9.378425 2.633965 4.145462 13.504169 -5.904455 -2.532341 0.062500 10.783000
H 1.735022 0.101820 11.025751 -11.981141 5.125956 -2.984649 0.062500 10.783000
O 1.793265 0.400002 11.065840 2.963551 0.273470 1.134085 1.000000 -21.566000
H 2.022288 0.543377 10.891260 4.842490 -5.822717 -4.292222 0.062500 10.783000
H 8.539066 0.437171 13.112747 -8.634652 0.288192 -8.512509 0.062500 10.783000
O 8.847182 0.344927 13.182711 -5.057986 2.194900 -0.016181 1.000000 -21.566000
H 9.013186 0.316727 12.900060 12.742950 6.788164 -7.128111 0.062500 10.783000
H 0.121164 0.608159 7.781816 -3.071849 -20.100498 1.470181 0.062500 10.783000
O 0.422363 0.619449 7.880062 -2.719917 3.026307 1.167442 1.000000 -21.566000
H 0.553985 0.332240 7.919394 0.573959 12.325456 -4.615011 0.062500 10.783000
H 7.723307 1.796397 0.298742 -14.226947 -4.979633 17.717208 0.062500 10.783000
O 7.541531 1.545296 0.240083 2.307098 -0.408508 2.990083 1.000000 -21.566000
H 7.625104 1.321471 0.475822 5.416253 4.086985 4.955347 0.062500 10.783000
H 2.905849 0.503415 4.745834 10.242606 -6.974788 3.114867 0.062500 10.783000
O 2.739729 0.444723 4.487957 -0.683962 1.091896 -0.740186 1.000000 -21.566000
H 2.486564 0.265697 4.594182 3.060303 -13.372001 2.347921 0.062500 10.783000
H 5.014603 1.067189 14.130930 -2.628630 1.567185 6.104642 0.062500 10.783000
O 5.168541 0.890906 14.361844 2.292346 1.464927 1.747283 1.000000 -21.566000
H 5.469856 1.000302 14.366572 0.308476 13.479869 9.331151 0.062500 10.783000
H 6.203204 12.037733 8.354567 -1.204133 -7.590478 -8.822907 0.062500 10.783000
O 5.936850 11.954195 8.197122 1.090423 2.283936 2.052413 1.000000 -21.566000
H 5.720356 11.797368 8.366560 7.043819 3.884341 1.375682 0.062500 10.783000
H 7.277993 10.693745 11.100438 5.203394 -3.813490 2.292500 0.062500 10.783000
O 7.502615 10.474036 11.117960 -0.212020 0.045437 1.566714 1.000000 -21.566000
H 7.542514 10.442733 10.795191 12.969134 1.208617 9.360233 0.062500 10.783000
H 7.111102 13.912715 5.975115 -10.095140 0.919517 9.661191 0.062500 10.783000
O 7.221288 13.773583 5.702675 1.172148 0.665019 -2.242827 1.000000 -21.566000
H 6.968868 13.813271 5.511346 -1.276826 3.516499 -7.326714 0.062500 10.783000
H 9.202698 10.725095 0.893317 -4.718899 8.502558 5.927874 0.062500 10.783000
O 9.430083 10.576257 0.721680 1.293019 -0.424832 -2.064552 1.000000 -21.566000
H 9.725950 10.586479 0.825630 3.385240 7.602433 8.157953 0.062500 10.783000
H 5.175196 3.202034 5.245823 -10.205138 -4.765388 10.909242 0.062500 10.783000
O 5.100403 3.090931 4.951831 -3.179075 0.403740 1.949442 1.000000 -21.566000
H 5.360737 3.080611 4.756585 -4.516377 -6.856747 5.837770 0.062500 10.783000
H 10.598289 7.829520 3.246543 1.497775 14.840951 27.134837 0.062500 10.783000
O 10.376301 7.967642 3.423215 -3.042283 2.028923 2.316512 1.000000 -21.566000
H 10.261494 8.195332 3.243510 -11.018946 -0.017650 3.517641 0.062500 10.783000
H 14.490436 3.986986 3.537238 -1.150737 -9.626335 0.230295 0.062500 10.783000
O 14.699597 4.240333 3.524115 4.901247 -3.388025 0.300093 1.000000 -21.566000
H 14.533685 4.516532 3.551576 0.308184 -7.074553 2.139937 0.062500 10.783000
H 11.896800 3.812703 5.886179 4.880288 1.317415 1.665255 0.062500 10.783000
O 11.924625 3.683964 5.590758 0.046295 -2.188537 -3.168550 1.000000 -21.566000
H 12.111874 3.425603 5.608152 5.041121 2.331209 -11.149739 0.062500 10.783000
H 10.676346 0.542745 4.380044 -8.358203 0.421566 -2.362641 0.062500 10.783000
O 10.888294 0.591134 4.613676 -1.400022 2.841011 -0.318455 1.000000 -21.566000
H 10.719458 0.732667 4.853505 -11.056026 -0.838097 -0.272726 0.062500 10.783000
H 11.693786 7.121535 13.109722 1.136509 -3.832959 -3.350135 0.062500 10.783000
O 11.391262 7.190620 13.218771 4.796437 -2.294395 -1.382101 1.000000 -21.566000
H 11.390587 7.482241 13.359295 9.960158 -15.220171 -5.272540 0.062500 10.783000
H 7.718813 2.472865 0.077362 13.617874 4.665877 -4.056209 0.062500 10.783000
O 7.858469 2.304052 0.329686 1.747626 2.227326 5.229511 1.000000 -21.566000
H 8.177962 2.353941 0.251752 -7.671887 -7.787592 11.489265 0.062500 10.783000
H 1.866710 4.047380 5.314674 3.870195 4.472353 -3.124226 0.062500 10.783000
O 1.811450 3.728066 5.382906 -2.516916 0.369349 1.908616 1.000000 -21.566000
H 2.068813 3.534010 5.412000 3.595590 -1.995012 2.550228 0.062500 10.783000
H 7.830405 12.860107 3.439017 -7.306906 5.180359 5.239551 0.062500 10.783000
O 8.110838 12.878336 3.602069 2.459950 -0.402116 -1.135913 1.000000 -21.566000
H 8.198218 12.600706 3.726785 8.184614 1.484257 -0.627322 0.062500 10.783000
H 5.139133 13.177574 4.993845 1.333036 -3.742614 6.097326 0.062500 10.783000
O 4.856971 13.211584 4.853463 -0.054648 -0.435369 -0.766547 1.000000 -21.566000
H 4.647661 13.010992 4.991181 -6.336117 4.400133 8.995918 0.062500 10.783000
H 2.394123 5.485506 10.938805 -4.319000 -8.465382 8.314644 0.062500 10.783000
O 2.205949 5.234927 10.907990 -0.805938 -1.509774 -2.769794 1.000000 -21.566000
H 2.313765 5.012164 10.703931 9.636948 5.728186 -6.565318 0.062500 10.783000
H 9.746662 13.358823 11.019800 16.382630 6.548013 -3.215621 0.062500 10.783000
O 9.971162 13.553028 10.907880 1.751152 2.184384 -0.578809 1.000000 -21.566000
H 10.079163 13.455419 10.621238 6.320069 1.278443 0.941961 0.062500 10.783000
H 7.761195 6.720869 1.508233 6.630474 -1.461948 -6.112075 0.062500 10.783000
O 7.963242 6.676558 1.266774 1.668307 -2.010756 2.047116 1.000000 -21.566000
H 8.247109 6.792592 1.368963 -6.793927 -0.625634 -4.036005 0.062500 10.783000
H 3.804275 0.993862 0.124645 15.833045 1.877248 0.423898 0.062500 10.783000
O 3.706628 1.125573 0.396488 3.780908 -2.469758 -1.895516 1.000000 -21.566000
H 3.498656 0.933661 0.547043 -1.220095 6.983260 -7.236785 0.062500 10.783000
H 5.471377 7.363745 3.807919 0.177394 -11.145478 13.413523 0.062500 10.783000
O 5.726012 7.410387 3.996563 -0.023946 2.497092 -1.391157 1.000000 -21.566000
H 5.974955 7.277660 3.853763 5.764323 -5.906470 -6.485805 0.062500 10.783000
H 11.415280 1.162435 2.231974 -4.825378 -19.941817 0.695056 0.062500 10.783000
O 11.635652 0.939421 2.183491 -0.177120 -0.724564 -0.386599 1.000000 -21.566000
H 11.628952 0.757227 2.446491 -8.196868 -4.582451 -6.832572 0.062500 10.783000
H 2.310899 0.531747 14.280368 1.537207 -5.198607 -4.190462 0.062500 10.783000
O 2.612622 0.477463 14.166820 -1.361876 1.003989 1.103353 1.000000 -21.566000
H 2.599693 0.456082 13.849292 -3.022740 0.544556 -10.684918 0.062500 10.783000
H 9.594707 14.325900 14.609663 9.174031 5.288725 9.981263 0.062500 10.783000
O 9.875847 14.276839 14.467744 0.609289 -2.005402 -0.612434 1.000000 -21.566000
H 10.025395 14.568063 14.480754 -7.852958 -8.304898 1.992879 0.062500 10.783000
H 13.255634 12.533482 9.790444 -11.302904 0.786177 -2.006900 0.062500 10.783000
O 12.945244 12.570450 9.764160 -1.060435 -0.593688 1.887344 1.000000 -21.566000
H 12.837702 12.274679 9.738190 -8.155557 -0.831494 -7.070838 0.062500 10.783000
H 0.967147 1.172614 3.183358 0.688547 -7.877068 8.325315 0.062500 10.783000
O 0.734559 1.351277 3.305536 -2.099203 0.129752 -0.946052 1.000000 -21.566000
H 0.620474 1.559152 3.106802 -17.008855 -20.008580 -9.634496 0.062500 10.783000
H 11.494703 5.392484 3.091844 3.886517 -12.599645 -8.831702 0.062500 10.783000
O 11.504989 5.444411 3.416523 -2.793988 -0.421424 -2.960599 1.000000 -21.566000
H 11.700735 5.690699 3.483846 -7.129762 4.345132 -11.893748 0.062500 10.783000
H 3.162880 10.079299 2.538355 1.527510 -10.514757 1.887332 0.062500 10.783000
O 2.928185 10.277192 2.402988 -2.840544 -2.181603 0.847191 1.000000 -21.566000
H 2.640480 10.234627 2.542887 5.194603 2.505672 -3.283387 0.062500 10.783000
H 14.062567 7.741335 12.938361 -9.913983 9.275155 -8.385250 0.062500 10.783000
O 13.785500 7.796795 13.074272 -1.950023 -2.431596 -4.166276 1.000000 -21.566000
H 13.880370 7.842338 13.378151 9.536513 -1.703239 2.788662 0.062500 10.783000
H 0.210491 6.242671 14.498285 1.901727 0.422443 -2.064022 0.062500 10.783000
O 0.155615 6.469712 14.277719 -2.231583 -1.556577 2.091346 1.000000 -21.566000
H 0.282545 6.383009 13.996831 -7.088510 -0.773890 12.286466 0.062500 10.783000
H 5.321322 2.331936 7.305702 -2.884449 5.745436 3.705162 0.062500 10.783000
O 5.244167 2.195707 7.028997 -0.132937 -1.248963 1.842640 1.000000 -21.566000
H 5.490630 2.018638 6.891977 3.815200 1.643434 1.508824 0.062500 10.783000
H 11.526645 9.523936 1.916912 1.988093 -9.199044 8.017828 0.062500 10.783000
O 11.528809 9.358837 2.182276 -0.484279 1.036065 -0.417294 1.000000 -21.566000
H 11.554996 9.537198 2.436376 11.602130 -4.288494 2.278187 0.062500 10.783000
H 6.113334 5.005180 0.475010 7.513542 -0.017056 -0.838700 0.062500 10.783000
O 6.424009 5.085682 0.505974 -1.692710 4.724724 0.622029 1.000000 -21.566000
H 6.508660 5.286246 0.269781 6.574518 -5.588743 -2.034134 0.062500 10.783000
H 5.280160 10.666726 2.506568 7.043562 -6.156780 14.292699 0.062500 10.783000
O 5.210478 10.416512 2.321660 -0.016263 0.614657 -2.515905 1.000000 -21.566000
H 5.341976 10.467208 2.047646 1.942350 -12.908336 1.072150 0.062500 10.783000
H 7.939053 1.895730 9.888644 2.670669 1.906615 10.822077 0.062500 10.783000
O 7.716448 1.755866 10.090938 3.395805 -5.210857 -1.925401 1.000000 -21.566000
H 7.895311 1.682729 10.347137 0.822935 -16.254896 1.751993 0.062500 10.783000
H 10.483252 5.914478 1.515898 -1.907750 7.502140 3.267993 0.062500 10.783000
O 10.511466 5.930122 1.195362 -1.988245 -0.687094 -3.577785 1.000000 -21.566000
H 10.327153 6.191686 1.097769 1.079926 10.614478 -1.830270 0.062500 10.783000
H 8.491721 1.952572 13.897259 4.685506 5.273840 8.463411 0.062500 10.783000
O 8.274225 2.198453 13.878197 -0.876686 1.681003 -1.552708 1.000000 -21.566000
H 8.441486 2.429084 14.025707 8.783937 -12.598385 2.647530 0.062500 10.783000
H 0.247940 5.489159 4.800133 0.051142 -4.964202 -8.371440 0.062500 10.783000
O 0.408811 5.727081 4.647233 2.935131 -4.319686 -2.413650 1.000000 -21.566000
H 0.496407 5.875180 4.920586 4.436188 12.725978 -4.247634 0.062500 10.783000
H 3.589276 3.038455 3.660673 2.303343 4.564603 5.694411 0.062500 10.783000
O 3.531166 2.758375 3.517046 -2.842502 3.120939 0.168522 1.000000 -21.566000
H 3.429453 2.548684 3.739848 -1.261572 -3.821878 -9.581267 0.062500 10.783000
H 0.766587 1.984934 5.730222 6.532877 -9.236564 3.311447 0.062500 10.783000
O 0.459481 1.935231 5.809691 2.415640 0.951542 -0.813443 1.000000 -21.566000
H 0.495464 1.617134 5.871244 -7.303365 5.173767 -19.644236 0.062500 10.783000
H 10.571140 5.326275 1.140317 -1.691213 -1.222707 -2.032786 0.062500 10.783000
O 10.673946 5.016892 1.096162 -2.142213 -2.799694 2.700323 1.000000 -21.566000
H 10.990300 5.043426 1.136938 -6.341500 -4.373438 1.109257 0.062500 10.783000
H 3.302005 11.796418 4.440891 3.454466 4.904267 0.694895 0.062500 10.783000
O 3.115045 12.020923 4.561207 2.745871 2.413214 -3.691915 1.000000 -21.566000
H 2.814135 11.917999 4.487902 -1.148436 -4.306678 0.096365 0.062500 10.783000
H 13.395728 2.478582 2.518000 -0.667039 14.939674 -13.056956 0.062500 10.783000
O 13.347592 2.239059 2.317629 0.884729 -1.058651 2.684704 1.000000 -21.566000
H 13.046934 2.118987 2.309864 2.103104 0.755873 6.610543 0.062500 10.783000
H 3.562152 6.707904 14.638670 0.657697 -1.891039 -0.549001 0.062500 10.783000
O 3.719455 6.890995 0.096624 -0.467577 -1.874468 0.278797 1.000000 -21.566000
H 3.522032 7.039312 0.302586 -6.451709 -9.638385 13.327556 0.062500 10.783000
H 7.136601 4.431459 0.675166 -3.706029 -3.896518 -2.316742 0.062500 10.783000
O 6.864931 4.436151 0.817705 -6.033953 2.940895 2.605249 1.000000 -21.566000
H 6.735090 4.705961 0.706227 -0.277427 -9.633334 -3.422078 0.062500 10.783000
H 6.416898 6.204292 2.128657 7.294157 -1.963764 -0.634725 0.062500 10.783000
O 6.268094 6.449044 2.268309 4.572861 1.894939 -1.982236 1.000000 -21.566000
H 6.473087 6.644987 2.401040 0.471480 3.927628 2.621650 0.062500 10.783000
H 5.128461 4.301212 4.079838 4.203620 9.190967 -7.060214 0.062500 10.783000
O 5.340925 4.171026 3.859360 0.071481 -2.861978 -3.023608 1.000000 -21.566000
H 5.167778 4.106620 3.612236 -1.571116 -4.525458 7.004348 0.062500 10.783000
H 5.005932 2.057395 11.122417 0.554752 -7.059666 1.578963 0.062500 10.783000
O 4.871722 2.336491 11.237175 -0.704644 -0.398976 2.733532 1.000000 -21.566000
H 5.098575 2.537093 11.318048 -6.743055 -10.509942 -1.643523 0.062500 10.783000
H 8.059581 5.804833 6.318667 -4.192472 -0.983436 -0.480485 0.062500 10.783000
O 7.912146 6.021713 6.117999 2.846904 -1.397633 1.180745 1.000000 -21.566000
H 7.749890 5.889944 5.880527 9.204888 -9.944395 -0.549832 0.062500 10.783000
H 0.827401 0.728778 0.037380 -0.979694 16.652283 -4.618903 0.062500 10.783000
O 0.874467 0.412269 14.717870 0.999455 0.279574 -0.110960 1.000000 -21.566000
H 0.744170 0.334476 14.437853 2.837608 2.887901 2.661124 0.062500 10.783000
H 7.219236 4.574902 4.520008 -5.028197 -4.609027 -9.332723 0.062500 10.783000
O 7.499832 4.592233 4.360304 1.518259 -0.003693 -5.955364 1.000000 -21.566000
H 7.603712 4.288342 4.356658 3.243571 -1.379580 5.751557 0.062500 10.783000
H 7.301167 3.621432 6.127514 -5.384466 11.770981 9.420289 0.062500 10.783000
O 7.431900 3.440087 6.360421 -1.240241 -0.046453 0.403141 1.000000 -21.566000
H 7.432924 3.612978 6.641018 -3.777711 14.749797 3.675790 0.062500 10.783000
H 2.410231 9.069329 4.709349 -14.300185 -0.302029 -3.206738 0.062500 10.783000
O 2.249070 8.800157 4.629341 0.190968 2.726760 1.325872 1.000000 -21.566000
H 2.385692 8.542736 4.771357 -1.002552 -4.904853 -6.662295 0.062500 10.783000
H 13.506658 2.417669 3.318939 2.847124 -2.367134 -1.717919 0.062500 10.783000
O 13.486432 2.396280 3.634680 1.220181 -4.658029 0.467244 1.000000 -21.566000
H 13.169902 2.377974 3.679845 4.081879 -8.250707 -10.890433 0.062500 10.783000
H 8.942353 5.840001 3.946199 17.704968 -0.921172 -16.419809 0.062500 10.783000
O 8.969996 5.740725 4.252658 -1.155752 2.803888 1.170566 1.000000 -21.566000
H 8.989352 6.022087 4.425066 4.806365 -4.774263 3.716546 0.062500 10.783000
H 0.021565 8.794818 3.520285 6.600969 -9.400256 4.767194 0.062500 10.783000
O 0.296558 8.963847 3.531766 0.929311 0.578781 -2.948708 1.000000 -21.566000
H 0.382554 8.966288 3.219694 12.566018 10.582083 0.894109 0.062500 10.783000
H 3.384272 0.899458 3.219497 -8.463373 8.113770 7.075433 0.062500 10.783000
O 3.395963 1.103493 2.987765 -1.826443 -0.395853 -2.369785 1.000000 -21.566000
H 3.651691 1.283291 2.941106 -2.829675 -0.203901 -5.423312 0.062500 10.783000
H 3.040640 8.260586 0.092001 -7.943161 1.181498 -7.078832 0.062500 10.783000
O 3.306630 8.220979 0.263325 -1.228943 1.495030 -0.829744 1.000000 -21.566000
H 3.272344 8.042355 0.523806 -3.226488 10.018421 5.042020 0.062500 10.783000
H 0.605769 9.772666 5.087003 -9.264113 9.628060 -6.869283 0.062500 10.783000
O 0.585367 9.624216 4.805324 1.784385 0.785848 -0.061368 1.000000 -21.566000
H 0.321257 9.448631 4.810744 -3.558576 -3.837320 -0.624663 0.062500 10.783000
H 0.738442 0.910394 7.689920 14.737575 -14.453813 16.072692 0.062500 10.783000
O 0.981135 1.081655 7.527754 -0.581954 -2.517013 -1.023882 1.000000 -21.566000
H 1.006743 1.318771 7.751954 -0.327225 10.079477 -10.715963 0.062500 10.783000
H 3.975725 7.062727 5.884469 11.799454 2.418225 3.637867 0.062500 10.783000
O 4.173951 6.858802 6.022096 1.838919 -0.093832 2.800991 1.000000 -21.566000
H 4.040778 6.715651 6.268161 -3.894549 1.352653 8.639171 0.062500 10.783000
H 1.014928 11.483558 13.070715 9.585732 -8.466875 6.413010 0.062500 10.783000
O 1.276181 11.523024 12.906453 -1.373105 1.389286 -0.063515 1.000000 -21.566000
H 1.271567 11.539885 12.582327 -21.357821 -11.832495 -0.012475 0.062500 10.783000
H 9.507640 6.353545 2.528413 -14.193029 1.420019 -8.300553 0.062500 10.783000
O 9.285609 6.567350 2.551679 -3.111790 4.050156 0.847570 1.000000 -21.566000
H 9.060067 6.429425 2.350261 -4.005066 -9.514234 3.814141 0.062500 10.783000
H 1.418994 4.573613 14.294817 -11.942814 1.794984 3.460368 0.062500 10.783000
O 1.458914 4.279366 14.424994 0.926455 -2.479677 0.758540 1.000000 -21.566000
H 1.460356 4.304015 0.012568 -17.847751 -9.690169 -0.417640 0.062500 10.783000
H 7.870880 5.123620 2.744693 -7.007239 0.071959 -12.148616 0.062500 10.783000
O 7.754628 4.832588 2.658578 1.867955 1.646900 -0.627464 1.000000 -21.566000
H 7.714185 4.697556 2.950522 -7.684884 -11.943545 1.538580 0.062500 10.783000
H 7.831092 4.085503 13.391291 1.800775 -1.066057 2.946777 0.062500 10.783000
O 7.880813 3.856689 13.571130 1.225143 0.530244 -0.840641 1.000000 -21.566000
H 7.983671 3.604225 13.404922 0.313488 -5.640061 3.472332 0.062500 10.783000
H 11.167121 8.810563 7.425581 -13.811724 -9.084873 -7.108171 0.062500 10.783000
O 10.986768 8.676904 7.654698 2.495926 0.035904 0.956633 1.000000 -21.566000
H 11.140747 8.514408 7.870206 7.705534 -0.413251 -2.713775 0.062500 10.783000
H 11.656365 4.154353 3.141471 -13.574776 -3.286399 -4.321637 0.062500 10.783000
O 11.869053 4.105829 2.911880 -0.826567 3.914391 1.332353 1.000000 -21.566000
H 12.057450 3.851044 3.001324 -0.237531 -6.688735 1.297092 0.062500 10.783000
H 14.640025 6.765815 5.654872 2.919918 -4.054460 -5.334475 0.062500 10.783000
O 0.183722 6.851655 5.775984 -1.944097 2.648985 0.032885 1.000000 -21.566000
H 0.344160 7.038346 5.591112 0.742470 -4.743410 8.507095 0.062500 10.783000
H 4.491371 5.846038 2.451051 -6.983135 -15.046042 8.610299 0.062500 10.783000
O 4.534475 6.158204 2.379528 -0.176666 3.364038 2.366678 1.000000 -21.566000
H 4.840376 6.172684 2.290134 4.284493 -8.820799 3.444900 0.062500 10.783000
H 14.567590 5.063745 5.366989 -7.966939 11.108736 7.040173 0.062500 10.783000
O 14.651234 5.122347 5.061130 5.050120 -4.478454 -3.572561 1.000000 -21.566000
H 14.707028 4.825673 4.914392 8.054829 -6.154958 -9.641219 0.062500 10.783000
H 12.992748 4.236454 6.415131 -5.389144 4.072496 1.952589 0.062500 10.783000
O 12.914513 4.488088 6.240242 -2.302335 -0.744588 1.101122 1.000000 -21.566000
H 12.638655 4.649801 6.313596 2.923612 16.772895 -5.920240 0.062500 10.783000
H 3.347244 1.665751 1.534841 6.401394 -4.916511 11.669575 0.062500 10.783000
O 3.419155 1.357959 1.570108 0.266780 -0.245465 0.140833 1.000000 -21.566000
H 3.188080 1.137144 1.560070 -3.973967 -6.175893 7.089109 0.062500 10.783000
H 14.101015 8.957678 0.046453 0.094285 -9.748869 12.298616 0.062500 10.783000
O 14.218289 9.073785 14.505553 1.490924 -2.506516 -2.950748 1.000000 -21.566000
H 14.104179 9.374650 14.493970 9.142378 -4.272233 0.196941 0.062500 10.783000
H 11.860875 6.268994 3.165569 -8.279606 0.760572 8.242345 0.062500 10.783000
O 12.098516 6.060201 3.234806 -2.631044 -0.350051 -3.319770 1.000000 -21.566000
H 12.326124 6.121236 3.023636 3.611642 2.916679 13.744179 0.062500 10.783000
H 1.801525 8.456659 3.327172 4.064274 -2.875514 5.890678 0.062500 10.783000
O 1.598449 8.259256 3.469238 -1.390652 -0.828117 0.554280 1.000000 -21.566000
H 1.560875 8.369702 3.773016 4.471455 -5.773551 -1.718588 0.062500 10.783000
H 1.304532 2.639862 3.879259 -4.414458 5.773032 3.640094 0.062500 10.783000
O 1.144858 2.913657 3.794351 -0.008995 -2.382434 1.583278 1.000000 -21.566000
H 1.350012 3.172442 3.791016 -6.479717 8.647358 9.222731 0.062500 10.783000
H 7.137100 14.659236 0.280956 12.281262 -4.261473 -10.646665 0.062500 10.783000
O 7.012326 14.381090 0.398570 -0.287460 0.417026 -3.911198 1.000000 -21.566000
H 6.897890 14.207080 0.143405 -6.351943 -8.881375 8.937384 0.062500 10.783000
H 9.213535 1.026717 4.208250 16.146944 0.998528 2.805439 0.062500 10.783000
O 9.167049 1.276299 4.396246 -0.653156 -0.627197 1.054584 1.000000 -21.566000
H 9.449448 1.419600 4.423334 3.182832 -1.463257 9.925391 0.062500 10.783000
H 14.675346 11.846769 1.977917 -0.922859 -2.976530 3.504983 0.062500 10.783000
O 14.380838 11.976239 1.994822 -0.028924 2.867031 4.223360 1.000000 -21.566000
H 14.350505 12.180094 1.762366 -7.670973 2.821550 7.083946 0.062500 10.783000
H 4.661589 3.388516 3.408792 11.624557 14.495122 2.365752 0.062500 10.783000
O 4.540708 3.529082 3.147732 -1.282427 1.029442 0.821598 1.000000 -21.566000
H 4.684819 3.799297 3.066900 4.107518 0.739276 -6.882385 0.062500 10.783000
H 10.544039 3.540910 0.183153 -19.312338 -5.541448 -7.586258 0.062500 10.783000
O 10.578758 3.776060 14.690508 -2.911505 1.455423 0.635586 1.000000 -21.566000
H 10.636334 3.640435 14.416676 1.985714 -11.377252 -6.180424 0.062500 10.783000
H 13.690496 7.322330 3.827188 -4.184351 11.307861 12.097215 0.062500 10.783000
O 13.866393 7.550627 3.731082 -3.225815 -0.593418 0.436418 1.000000 -21.566000
H 14.025946 7.427837 3.480640 4.712971 -3.180352 3.473442 0.062500 10.783000
H 9.246773 8.832099 4.598839 5.527046 2.660087 -14.809431 0.062500 10.783000
O 9.304383 8.996297 4.882430 0.508743 -1.248009 -1.836102 1.000000 -21.566000
H 9.514588 9.224405 4.788267 3.911369 5.318274 0.046146 0.062500 10.783000
H 8.456330 7.729964 4.434217 2.456774 7.793339 18.433972 0.062500 10.783000
O 8.775532 7.706890 4.349893 -3.100852 1.196047 1.443837 1.000000 -21.566000
H 8.801702 7.430185 4.181663 12.306027 6.400451 -1.852731 0.062500 10.783000
H 13.749473 1.290928 3.192737 13.011770 7.940092 1.080561 0.062500 10.783000
O 13.765314 1.081638 3.435314 -0.169921 0.769017 -1.052878 1.000000 -21.566000
H 14.033113 1.120646 3.615475 -5.709842 1.725965 -4.484396 0.062500 10.783000
H 0.144976 10.920556 7.549515 -2.058566 -0.220089 -6.151754 0.062500 10.783000
O 0.408390 10.882156 7.369836 -0.774311 -2.823029 1.242555 1.000000 -21.566000
H 0.291907 10.940121 7.083724 -1.619463 -2.080283 4.111292 0.062500 10.783000
H 0.788276 3.257198 3.842495 3.377941 8.225659 -3.842490 0.062500 10.783000
O 0.537244 3.460868 3.906923 2.232645 -0.141723 1.794536 1.000000 -21.566000
H 0.641148 3.716845 4.072481 0.309209 5.459545 -10.345710 0.062500 10.783000
H 13.904059 7.707302 2.556366 -4.194996 -3.606281 -10.314488 0.062500 10.783000
O 13.838079 8.016980 2.625504 -4.919688 1.213289 1.036398 1.000000 -21.566000
H 13.512124 8.081229 2.669204 -1.785082 9.240754 -8.942687 0.062500 10.783000
H 14.420018 5.313763 13.227080 -4.316416 5.804682 -14.207083 0.062500 10.783000
O 14.334752 5.011899 13.303733 2.449641 0.034618 -0.081895 1.000000 -21.566000
H 14.556486 4.936578 13.542628 19.345524 -6.220957 -7.959493 0.062500 10.783000
H 5.261483 2.027334 0.925550 10.781819 18.614110 6.940336 0.062500 10.783000
O 5.112991 1.956597 0.647091 -2.117126 0.929444 1.846154 1.000000 -21.566000
H 4.797595 1.984604 0.665629 1.854617 -0.378416 -10.135337 0.062500 10.783000
H 5.514605 10.688826 11.586551 4.524925 -5.880257 -1.869540 0.062500 10.783000
O 5.719485 10.555241 11.388269 -0.415897 -0.942082 1.039107 1.000000 -21.566000
H 5.686583 10.737485 11.124886 4.697642 -9.116590 4.288292 0.062500 10.783000
H 9.412122 6.544406 4.707629 -4.741137 -13.173715 7.791301 0.062500 10.783000
O 9.100455 6.460281 4.655153 3.010828 -1.111963 -0.497571 1.000000 -21.566000
H 8.968783 6.598460 4.917763 20.325605 13.292637 -0.152188 0.062500 10.783000
H 12.709693 7.457284 1.183888 -9.492985 13.766674 4.183088 0.062500 10.783000
O 12.975720 7.632777 1.201351 0.199808 -1.711286 1.412025 1.000000 -21.566000
H 13.230919 7.461338 1.092881 -3.425468 -10.126438 -2.379555 0.062500 10.783000
H 7.999650 5.904562 0.647262 7.901408 2.267342 2.946538 0.062500 10.783000
O 8.136056 5.630961 0.725633 2.366194 -1.570377 -0.813913 1.000000 -21.566000
H 8.067524 5.415687 0.498690 6.527779 3.643191 -4.775938 0.062500 10.783000
H 13.315294 5.145242 4.863460 11.563256 -8.014067 3.497713 0.062500 10.783000
O 13.204454 5.225161 5.147093 -0.098519 -1.024879 0.268286 1.000000 -21.566000
H 13.387176 5.094880 5.382037 -2.693029 3.230715 -7.071830 0.062500 10.783000
H 1.685612 6.090220 3.349419 -4.846260 -17.200516 -0.827516 0.062500 10.783000
O 1.629601 5.792976 3.271220 -0.754657 -1.227417 2.237049 1.000000 -21.566000
H 1.451133 5.650204 3.503063 -4.722479 11.866419 23.932278 0.062500 10.783000
H 5.000349 5.407001 1.399820 12.341539 -0.142255 -14.064049 0.062500 10.783000
O 4.697349 5.405732 1.276348 -2.606955 -0.624418 2.520705 1.000000 -21.566000
H 4.532179 5.318862 1.534099 -5.741374 -4.682913 -2.706947 0.062500 10.783000
H 12.361117 2.911948 6.140752 -1.358305 12.982647 -7.948652 0.062500 10.783000
O 12.636775 2.843564 5.974697 1.844955 -0.572149 0.089783 1.000000 -21.566000
H 12.579167 2.686368 5.711106 -7.849392 -4.320236 5.071514 0.062500 10.783000
H 1.798670 14.340019 1.341759 -7.642320 2.922486 5.485379 0.062500 10.783000
O 2.026252 14.190159 1.509518 1.596597 1.580427 1.220202 1.000000 -21.566000
H 2.332671 14.260681 1.559044 -3.553982 10.514513 -15.325264 0.062500 10.783000
H 4.583532 10.815467 3.558034 -27.071967 -6.678983 9.279903 0.062500 10.783000
O 4.628141 11.142423 3.595057 1.788040 3.677059 -0.423696 1.000000 -21.566000
H 4.377055 11.257217 3.427272 -4.662704 2.881039 -0.279726 0.062500 10.783000
H 13.735444 1.864154 2.611855 -12.039827 5.095685 0.575385 0.062500 10.783000
O 13.976087 1.728786 2.757120 -0.362051 1.348368 1.414572 1.000000 -21.566000
H 14.240927 1.922485 2.714485 -3.671629 0.617133 4.793854 0.062500 10.783000
H 1.188328 3.932693 6.244678 4.915378 -1.864111 -2.364759 0.062500 10.783000
O 1.132613 4.092302 6.512422 0.407913 -0.794362 0.083200 1.000000 -21.566000
H 0.816735 4.195372 6.495293 -1.709566 11.883663 -2.677015 0.062500 10.783000
H 2.881973 11.795282 0.944091 -3.450339 8.169063 6.636616 0.062500 10.783000
O 3.180814 11.771272 0.808746 -0.247480 0.927265 -2.604874 1.000000 -21.566000
H 3.106165 11.727022 0.494183 -4.101519 1.967407 -4.342090 0.062500 10.783000
H 4.778795 3.508379 4.709494 -1.863156 -3.179618 13.517565 0.062500 10.783000
O 4.519431 3.681093 4.649432 2.673998 -3.042858 -0.073070 1.000000 -21.566000
H 4.250837 3.517607 4.718242 -1.954363 5.416477 0.360723 0.062500 10.783000
H 2.414233 6.695182 4.442815 5.009947 4.689237 8.485490 0.062500 10.783000
O 2.426611 6.459397 4.648896 1.059924 2.696704 2.935038 1.000000 -21.566000
H 2.130734 6.349470 4.679114 6.973930 -19.245875 -1.235466 0.062500 10.783000
H 2.821957 13.404495 12.608636 -2.285703 7.225144 -7.844634 0.062500 10.783000
O 3.099908 13.296777 12.756198 -0.707194 2.841668 0.741922 1.000000 -21.566000
H 3.216440 13.066516 12.562942 -6.878324 -1.496641 5.219935 0.062500 10.783000
H 6.330603 11.262047 6.217761 0.724072 -0.683181 1.646367 0.062500 10.783000
O 6.219560 11.527250 6.377571 2.636727 -0.376294 -1.061257 1.000000 -21.566000
H 5.967768 11.678306 6.242171 -3.080023 -4.094649 1.819839 0.062500 10.783000
H 5.795405 10.008457 4.750036 2.401485 -2.408155 9.338883 0.062500 10.783000
O 5.975093 9.811822 4.905396 0.689234 1.294885 1.448618 1.000000 -21.566000
H 6.286464 9.850895 4.862640 -1.961546 -12.733474 4.894192 0.062500 10.783000
H 4.647767 11.355264 12.796541 -0.773837 -15.355448 -5.833980 0.062500 10.783000
O 4.365739 11.425228 12.658421 -0.662563 1.619280 1.067472 1.000000 -21.566000
H 4.370498 11.275776 12.363267 6.068464 -11.374210 -6.779722 0.062500 10.783000
H 10.856059 10.030693 4.158444 10.413981 -3.962796 -4.712404 0.062500 10.783000
O 11.015198 10.215131 4.360770 -0.813829 0.977820 3.077206 1.000000 -21.566000
H 11.307776 10.274166 4.261854 -6.298623 -2.844439 3.706164 0.062500 10.783000
H 8.544796 8.984043 10.027345 -2.994839 -1.149946 -5.981850 0.062500 10.783000
O 8.723372 8.714190 10.024847 1.263096 1.279625 -0.048574 1.000000 -21.566000
H 8.646424 8.546272 9.762147 7.768076 -10.073896 2.549019 0.062500 10.783000
H 11.217650 6.552732 4.761727 -10.318719 6.599562 2.771988 0.062500 10.783000
O 11.280023 6.782292 4.982043 -2.143801 0.361640 -1.681628 1.000000 -21.566000
H 11.378931 7.022355 4.800928 -3.160374 6.991433 5.313601 0.062500 10.783000
H 12.631903 9.025637 14.570737 5.811562 -8.042866 -0.367896 0.062500 10.783000
O 12.329213 8.929618 14.526971 1.101939 1.366162 0.702479 1.000000 -21.566000
H 12.245401 9.020576 14.229116 -2.611573 -2.238849 -3.981419 0.062500 10.783000
H 7.980927 10.608707 10.214263 -1.442465 13.308086 1.451199 0.062500 10.783000
O 7.663545 10.552350 10.247641 -3.776376 -1.155193 1.924808 1.000000 -21.566000
H 7.599112 10.387122 9.969263 15.096375 -11.317066 -4.527092 0.062500 10.783000
H 9.697010 9.925201 4.361652 -6.939692 11.286969 2.956418 0.062500 10.783000
O 9.600608 9.912719 4.057749 -1.512433 2.650654 1.344663 1.000000 -21.566000
H 9.355243 9.705639 4.017191 11.769689 -18.705574 10.868226 0.062500 10.783000
H 3.303980 5.644621 0.217890 2.771402 6.643897 -18.988533 0.062500 10.783000
O 3.420788 5.600136 14.666064 4.271132 0.314188 -3.485377 1.000000 -21.566000
H 3.479938 5.869894 14.521654 0.182208 2.623937 14.902437 0.062500 10.783000
H 5.624543 8.297191 0.773138 0.310113 4.782838 6.682111 0.062500 10.783000
O 5.663535 7.984524 0.857916 0.760254 0.989928 0.120217 1.000000 -21.566000
H 5.703415 7.970182 1.177992 2.702138 0.345589 -10.512442 0.062500 10.783000
H 14.009262 10.735562 8.119748 -24.155960 0.589207 -5.777792 0.062500 10.783000
O 14.169279 10.732588 7.837874 -2.087983 0.400519 -1.486810 1.000000 -21.566000
H 14.269766 10.431838 7.761615 7.035216 -11.710185 2.151528 0.062500 10.783000
H 6.207091 9.113868 10.452969 5.747228 -0.522781 -13.615155 0.062500 10.783000
O 5.886256 9.211991 10.443223 -1.126765 -0.792388 1.586872 1.000000 -21.566000
H 5.819416 9.364283 10.709002 3.023877 -6.480643 3.905408 0.062500 10.783000
H 12.835070 14.185867 10.238386 10.713929 6.604968 6.173134 0.062500 10.783000
O 13.122884 14.311534 10.287466 2.726498 5.106861 -1.634125 1.000000 -21.566000
H 13.194783 14.602810 10.146433 4.767561 7.418342 -1.649287 0.062500 10.783000
H 6.815207 13.341078 1.813311 -1.266255 1.188981 17.493506 0.062500 10.783000
O 6.931640 13.048351 1.844980 -1.076225 0.697685 -0.117004 1.000000 -21.566000
H 6.844358 12.869088 1.584529 1.613586 -9.321257 -1.953587 0.062500 10.783000
H 2.809008 10.965861 14.190845 2.652878 -14.943019 -4.115488 0.062500 10.783000
O 2.926397 11.271697 14.222485 -0.450240 -0.542626 -2.695531 1.000000 -21.566000
H 2.733050 11.484853 14.372239 12.064181 -2.983224 13.105672 0.062500 10.783000
H 3.395941 0.810345 7.017632 10.728890 -6.928944 1.351437 0.062500 10.783000
O 3.186983 1.001946 7.185514 -3.027285 -0.252078 2.631210 1.000000 -21.566000
H 2.875025 0.914396 7.151280 -5.435132 1.121988 -0.729855 0.062500 10.783000
H 3.471483 14.251542 9.541241 -1.486305 2.540138 -3.169629 0.062500 10.783000
O 3.309399 14.125549 9.787312 -2.349122 -1.225117 -1.294411 1.000000 -21.566000
H 3.494246 14.198973 10.043804 -5.492272 14.747916 -2.944436 0.062500 10.783000
H 8.689362 9.229438 11.510300 7.227773 2.485770 4.714246 0.062500 10.783000
O 8.562868 9.205076 11.212020 1.854317 -0.165543 -1.606225 1.000000 -21.566000
H 8.295904 9.057173 11.210259 3.612446 7.941821 6.005083 0.062500 10.783000
H 6.186655 8.678490 3.616854 -6.941954 -5.992244 -0.935225 0.062500 10.783000
O 6.354535 8.454493 3.455059 0.750662 0.163409 -1.405346 1.000000 -21.566000
H 6.359059 8.168222 3.585391 4.798261 -5.096259 -6.823774 0.062500 10.783000
H 11.724084 9.125139 4.102420 7.555555 -12.041187 -5.969762 0.062500 10.783000
O 11.819479 9.268254 3.835797 0.452165 1.643141 1.930333 1.000000 -21.566000
H 11.698722 9.083145 3.601486 17.438710 -5.034999 1.388813 0.062500 10.783000
H 9.159361 6.695856 1.651548 12.990805 2.099880 -4.172973 0.062500 10.783000
O 9.333475 6.941040 1.538902 -3.342001 1.098625 -1.722538 1.000000 -21.566000
H 9.365045 7.151173 1.779721 2.234558 -7.059821 1.482970 0.062500 10.783000
H 9.287574 4.131381 5.724377 3.805093 8.760058 -10.263062 0.062500 10.783000
O 9.209817 3.838682 5.813793 0.671502 0.796848 -0.153163 1.000000 -21.566000
H 9.327215 3.869820 6.115712 1.288311 -5.567654 -13.985007 0.062500 10.783000
H 12.764686 11.873464 0.711346 1.487807 -4.286571 -4.252811 0.062500 10.783000
O 12.685633 11.720331 0.972984 0.675607 1.691985 -0.460484 1.000000 -21.566000
H 12.870011 11.799201 1.240085 7.223288 15.395666 5.124652 0.062500 10.783000
H 13.143496 12.219160 14.678221 3.698406 0.741291 -11.129855 0.062500 10.783000
O 12.921712 12.001269 0.002971 -1.173759 1.603827 1.259349 1.000000 -21.566000
H 12.644155 12.120904 14.649005 11.988422 13.043562 -7.453436 0.062500 10.783000
H 1.652660 9.401532 14.181929 6.091654 -8.886581 3.365789 0.062500 10.783000
O 1.576716 9.420029 13.868160 -0.298044 4.259879 2.470324 1.000000 -21.566000
H 1.851683 9.356902 13.714380 5.036156 -10.598430 8.268627 0.062500 10.783000
H 5.207288 7.409954 14.732371 -3.087811 13.233339 3.459789 0.062500 10.783000
O 5.374203 7.496486 14.469819 -5.828785 0.529190 1.164397 1.000000 -21.566000
H 5.250297 7.791096 14.360834 -4.895058 -6.947496 -12.418941 0.062500 10.783000
H 1.036949 8.671007 5.237137 -1.878133 -2.752030 -11.106952 0.062500 10.783000
O 0.936698 8.387844 5.353925 -0.269576 -0.891811 -2.908283 1.000000 -21.566000
H 0.968907 8.354638 5.678654 -1.597558 -13.610078 -0.171534 0.062500 10.783000
H 13.037715 6.672412 0.560691 1.847646 7.312703 1.578271 0.062500 10.783000
O 12.793288 6.480574 0.579228 -2.233226 1.476247 -0.032924 1.000000 -21.566000
H 12.536214 6.659828 0.535418 2.104827 1.757527 -12.338633 0.062500 10.783000
H 4.208327 12.338403 11.398579 -2.782799 6.373997 -11.826454 0.062500 10.783000
O 4.377837 12.070026 11.309472 -1.199649 4.290775 -1.066605 1.000000 -21.566000
H 4.394231 12.061936 10.997078 -7.378536 1.909246 5.936647 0.062500 10.783000
H 2.230134 11.790476 14.627790 15.261751 -1.634214 -4.709576 0.062500 10.783000
O 2.516975 11.917466 14.572278 0.092379 0.720830 -1.700625 1.000000 -21.566000
H 2.502012 12.178333 14.405432 7.176143 4.963062 14.791808 0.062500 10.783000
H 14.314196 14.717692 11.883133 -0.054923 -17.738360 -10.834927 0.062500 10.783000
O 14.488328 14.691251 12.158731 1.310372 -0.404496 -0.670532 1.000000 -21.566000
H 0.007476 0.126331 12.112680 -1.430367 1.167574 -12.025357 0.062500 10.783000
H 14.382492 13.018669 0.125798 -7.863138 0.131927 13.110065 0.062500 10.783000
O 14.493558 12.740973 0.015612 0.993915 0.096913 -0.806311 1.000000 -21.566000
H 14.311897 12.657953 14.509342 3.324738 3.330203 -2.865893 0.062500 10.783000
H 8.142811 11.181261 4.201646 0.202529 -6.318483 -0.138711 0.062500 10.783000
O 8.022100 11.130634 3.903041 -0.998752 -1.485614 0.578160 1.000000 -21.566000
H 8.116968 11.364952 3.701008 8.023496 16.352570 3.670679 0.062500 10.783000
H 0.945861 0.535614 5.313613 17.092490 3.544894 4.321468 0.062500 10.783000
O 0.979855 0.845034 5.250074 1.336653 4.107296 1.844938 1.000000 -21.566000
H 1.085159 0.833664 4.951231 -9.640644 -14.493246 6.870741 0.062500 10.783000
H 5.778488 10.408404 14.068366 -1.765194 -3.121825 7.542285 0.062500 10.783000
O 5.803595 10.146674 13.862215 2.996770 -1.399139 -1.957515 1.000000 -21.566000
H 6.105893 10.116554 13.764426 3.505955 -19.993812 -10.088189 0.062500 10.783000
H 10.036106 4.561780 1.410938 -5.386848 -12.123180 -0.086264 0.062500 10.783000
O 10.148431 4.370044 1.632188 -2.958314 -1.171087 1.037417 1.000000 -21.566000
H 10.364134 4.520751 1.834090 -0.609125 -0.483291 -6.586851 0.062500 10.783000
H 9.644759 10.712160 4.098894 12.507612 2.151016 4.244433 0.062500 10.783000
O 9.793170 10.928515 4.286972 1.915077 3.216921 1.580375 1.000000 -21.566000
H 9.796408 10.820722 4.581820 6.323113 -0.088318 -4.842938 0.062500 10.783000
H 14.026648 0.247568 12.571313 10.855234 10.785139 7.681956 0.062500 10.783000
O 13.759447 0.290602 12.741828 0.238565 3.871710 -0.986947 1.000000 -21.566000
H 13.832556 0.547514 12.921968 8.542333 8.149940 1.600116 0.062500 10.783000
H 11.754646 11.264741 11.221182 -5.959358 -8.719329 1.252544 0.062500 10.783000
O 12.069673 11.246638 11.269037 2.648606 1.947264 -1.566440 1.000000 -21.566000
H 12.235017 11.499058 11.158289 -1.423229 -1.256693 -5.980555 0.062500 10.783000
H 13.617918 14.096712 11.188536 -6.311699 4.178701 9.875063 0.062500 10.783000
O 13.611532 13.799276 11.109153 0.734725 -2.783768 0.031701 1.000000 -21.566000
H 13.871564 13.647999 11.223294 -0.534254 -11.500723 -3.398734 0.062500 10.783000
H 3.632814 9.954647 11.400931 -14.124496 -12.752619 0.548000 0.062500 10.783000
O 3.686440 10.085392 11.688104 0.109158 -1.155078 -0.431324 1.000000 -21.566000
H 3.901201 9.875714 11.811491 -2.097967 3.069402 -6.294975 0.062500 10.783000
H 4.090590 12.600537 4.990424 -6.865833 3.105208 -4.733442 0.062500 10.783000
O 4.266904 12.662433 5.246041 -0.036859 -0.554706 -1.481223 1.000000 -21.566000
H 4.100815 12.505721 5.462288 4.580790 -11.529636 -1.434527 0.062500 10.783000
H 1.928797 14.470845 6.615548 0.160717 6.583001 2.394654 0.062500 10.783000
O 2.214416 14.429397 6.463576 -2.843380 0.188846 0.003867 1.000000 -21.566000
H 2.144545 14.358080 6.158236 7.437849 -6.027429 -5.197210 0.062500 10.783000
H 6.363493 6.712863 14.635422 -4.595691 -5.258584 9.239376 0.062500 10.783000
O 6.624705 6.842372 0.030317 -4.683842 3.211385 -1.269386 1.000000 -21.566000
H 6.856207 6.763941 14.574112 2.531892 9.219556 12.787010 0.062500 10.783000
H 0.909064 12.530950 8.602734 1.283910 -10.864985 18.337627 0.062500 10.783000
O 0.672184 12.438293 8.781643 -2.380600 0.788520 1.488501 1.000000 -21.566000
H 0.772725 12.415301 9.085236 -5.729384 -13.610641 -6.410967 0.062500 10.783000
H 1.431855 2.179498 1.846376 13.334799 0.813204 2.101711 0.062500 10.783000
O 1.334603 2.163324 1.531198 -0.149306 -0.505915 -0.204106 1.000000 -21.566000
H 1.262220 1.865919 1.431619 -2.190393 -12.006261 14.097742 0.062500 10.783000
H 1.464208 11.231804 4.222105 -4.015499 6.880980 -5.962743 0.062500 10.783000
O 1.175621 11.349004 4.218587 2.853960 2.168544 0.594854 1.000000 -21.566000
H 1.107637 11.371283 4.528375 -6.322934 -5.101948 3.292919 0.062500 10.783000
H 5.372938 13.526262 1.752005 8.112890 -11.315824 10.476461 0.062500 10.783000
O 5.521978 13.686802 1.515636 2.921360 1.168221 0.141828 1.000000 -21.566000
H 5.489396 13.992404 1.613945 -6.652896 -1.030221 3.571143 0.062500 10.783000
H 0.949802 8.142522 14.635633 -6.753234 8.219661 -0.382205 0.062500 10.783000
O 1.091593 7.860702 14.710952 -1.727350 -1.416514 -2.432560 1.000000 -21.566000
H 0.991885 7.779577 0.271281 -15.112731 -4.699417 0.950404 0.062500 10.783000
H 3.310097 14.020868 7.362186 -7.769486 -8.225229 -4.007030 0.062500 10.783000
O 3.248894 13.767168 7.561462 -1.187799 0.496357 0.717224 1.000000 -21.566000
H 3.208374 13.504940 7.383777 2.163690 0.203493 -7.350091 0.062500 10.783000
H 10.546774 10.515022 14.551783 -21.467425 2.654070 -15.466959 0.062500 10.783000
O 10.678008 10.236728 14.456277 0.289448 -0.500660 -4.540157 1.000000 -21.566000
H 10.688353 10.063882 14.710622 -7.474957 0.404016 1.937183 0.062500 10.783000
H 13.642130 0.199215 9.796413 -16.714095 -3.986313 -0.337442 0.062500 10.783000
O 13.354856 0.329691 9.854041 -1.191915 0.855063 -1.580781 1.000000 -21.566000
H 13.397954 0.646542 9.858660 -1.328599 -7.755274 1.510669 0.062500 10.783000
H 13.069052 9.447697 5.164943 7.635234 -8.264308 -7.100956 0.062500 10.783000
O 13.205782 9.674458 5.363646 2.927422 1.815585 -0.059871 1.000000 -21.566000
H 13.470055 9.820356 5.271867 11.696284 -10.980868 16.085626 0.062500 10.783000
H 7.917901 0.772503 0.847371 -6.936954 -3.549505 2.196971 0.062500 10.783000
O 7.616074 0.852480 0.800559 1.909333 1.506575 -0.014064 1.000000 -21.566000
H 7.452476 0.719433 1.029278 3.328600 -7.147695 7.882948 0.062500 10.783000
H 0.727256 10.424145 0.326170 -8.145140 -0.610901 2.580397 0.062500 10.783000
O 0.648965 10.588554 0.054160 0.379637 1.145002 -0.578616 1.000000 -21.566000
H 0.586341 10.881343 0.184321 6.702010 6.675087 -6.098580 0.062500 10.783000
H 1.226232 6.575167 1.324871 6.339766 6.853483 -1.957956 0.062500 10.783000
O 1.447689 6.690138 1.519405 1.544226 0.596836 0.495926 1.000000 -21.566000
H 1.418303 7.017531 1.519097 -3.176580 3.184049 -4.374969 0.062500 10.783000
H 6.177021 1.611508 10.437108 -3.212360 -11.334050 8.833701 0.062500 10.783000
O 5.974383 1.856772 10.443461 -1.195828 -1.683536 0.244116 1.000000 -21.566000
H 5.659908 1.785533 10.424557 -2.039752 9.517368 6.400335 0.062500 10.783000
H 0.487527 12.260762 7.153752 4.090090 3.169085 3.234933 0.062500 10.783000
O 0.805037 12.316332 7.171795 -0.340250 -2.260527 -2.415510 1.000000 -21.566000
H 0.786595 12.634224 7.175691 -6.864095 -1.351231 -9.802183 0.062500 10.783000
H 1.229518 11.411198 5.952017 -7.245243 1.549531 -4.722387 0.062500 10.783000
O 1.446384 11.191246 5.856859 1.754024 -1.252025 4.320661 1.000000 -21.566000
H 1.669341 11.124414 6.086758 -1.072406 -0.660992 -2.628618 0.062500 10.783000
H 10.520648 8.805301 12.636536 -12.729497 -11.871925 5.294371 0.062500 10.783000
O 10.559665 8.488556 12.726186 0.720516 0.443453 -3.398943 1.000000 -21.566000
H 10.284152 8.402719 12.877212 -11.885446 1.291465 -7.679779 0.062500 10.783000
H 3.161016 13.955908 4.196546 2.378980 -2.161185 6.225646 0.062500 10.783000
O 3.424029 14.086467 4.059922 4.399201 -0.664269 -2.024357 1.000000 -21.566000
H 3.629913 14.178096 4.296080 1.301752 -2.192490 -8.834680 0.062500 10.783000
H 7.545379 10.481507 9.243165 -16.038292 3.290621 4.711554 0.062500 10.783000
O 7.552515 10.686338 8.982262 0.049458 0.550466 0.925303 1.000000 -21.566000
H 7.340309 10.920434 8.985731 -4.871370 -15.991647 6.482724 0.062500 10.783000
H 12.890943 9.361887 3.804941 -5.551377 5.030885 12.615604 0.062500 10.783000
O 12.648522 9.160386 3.700336 -1.431247 0.667548 -0.222180 1.000000 -21.566000
H 12.369276 9.222220 3.854439 0.066705 5.215908 2.350783 0.062500 10.783000
H 6.500365 9.034939 7.995891 2.604517 -4.532876 -7.333406 0.062500 10.783000
O 6.254994 9.238906 8.020875 -1.640003 0.164342 -0.094256 1.000000 -21.566000
H 5.969014 9.102083 8.090925 7.916950 -0.046856 9.145844 0.062500 10.783000
H 7.522665 6.207194 0.065027 -9.929568 -4.050445 7.779673 0.062500 10.783000
O 7.407554 6.093267 14.512771 0.649162 -1.550389 -2.966586 1.000000 -21.566000
H 7.355533 6.362986 14.332841 5.001593 -8.493749 -13.117909 0.062500 10.783000
H 4.604919 13.884094 0.360452 -6.943859 -8.943764 14.558988 0.062500 10.783000
O 4.499181 13.571922 0.399416 -0.490995 -0.388789 3.164918 1.000000 -21.566000
H 4.202900 13.627557 0.481615 -6.483391 -8.485205 -7.725300 0.062500 10.783000
H 0.140871 11.142692 13.108180 7.675575 -2.644864 2.283691 0.062500 10.783000
O 14.659286 10.911676 13.152845 -1.245777 3.305948 1.469627 1.000000 -21.566000
H 0.084066 10.628283 13.116623 -1.008492 2.223430 -1.090207 0.062500 10.783000
H 13.529534 10.672539 0.707581 11.824930 7.353727 -4.804646 0.062500 10.783000
O 13.232710 10.738633 0.804020 0.497732 -1.055205 3.264139 1.000000 -21.566000
H 13.019014 10.764245 0.557797 16.023040 3.962476 1.085224 0.062500 10.783000
H 8.764704 12.611816 4.298262 -0.219042 -5.394832 -4.567748 0.062500 10.783000
O 8.886817 12.666535 4.583608 0.661102 2.747315 -1.045147 1.000000 -21.566000
H 9.170558 12.808468 4.535192 -5.873437 -6.838953 -4.946239 0.062500 10.783000
H 12.318134 13.886891 6.384682 6.206638 7.827878 1.878653 0.062500 10.783000
O 12.365343 14.070838 6.649139 2.157966 1.708318 1.663628 1.000000 -21.566000
H 12.063575 14.124949 6.739066 8.962597 15.145943 -8.195117 0.062500 10.783000
H 2.855871 14.383506 0.543566 1.119697 -3.987668 0.971625 0.062500 10.783000
O 3.039854 14.273804 0.780220 0.893999 -1.281183 -1.060715 1.000000 -21.566000
H 3.313430 14.421343 0.714172 -1.352373 -1.931064 2.774142 0.062500 10.783000
H 2.677026 3.266683 4.346766 11.701733 2.378590 22.956503 0.062500 10.783000
O 2.746317 3.573743 4.297200 -0.891282 3.299238 -1.192601 1.000000 -21.566000
H 2.477578 3.720291 4.402019 -11.239988 0.078547 -11.829623 0.062500 10.783000
H 5.395205 7.217367 5.265040 2.646795 -14.351431 7.104369 0.062500 10.783000
O 5.219128 6.949125 5.284570 -3.655341 -0.664364 1.031632 1.000000 -21.566000
H 5.153638 6.939085 5.590561 -6.598364 -0.777212 2.899959 0.062500 10.783000
H 3.743422 12.091024 5.916432 -5.590240 -1.338132 4.597567 0.062500 10.783000
O 3.720002 12.407238 5.837998 0.898713 -2.637546 4.965797 1.000000 -21.566000
H 3.485284 12.567128 5.993982 -14.116583 -2.784369 -0.275852 0.062500 10.783000
H 11.293606 13.150948 7.862756 -11.518344 18.732859 -2.511504 0.062500 10.783000
O 11.320339 13.095943 7.544800 3.336961 -1.878953 -0.184201 1.000000 -21.566000
H 11.023111 13.003311 7.447788 6.673104 10.439451 -4.175131 0.062500 10.783000
H 1.242287 14.051052 9.938016 13.300516 -7.919024 2.701761 0.062500 10.783000
O 1.102027 13.832632 9.762234 4.257442 0.158360 0.293917 1.000000 -21.566000
H 1.325029 13.606305 9.698270 4.924179 -2.803295 12.188240 0.062500 10.783000
H 11.404689 3.976641 1.293903 9.442526 12.258469 4.316676 0.062500 10.783000
O 11.719893 3.890093 1.306027 -1.289568 -2.835495 -3.212458 1.000000 -21.566000
H 11.760433 3.669887 1.540770 5.994086 2.438486 -1.393810 0.062500 10.783000
H 7.594185 14.233845 7.251419 -6.104020 6.731560 -0.258278 0.062500 10.783000
O 7.617166 13.962071 7.091557 2.358767 -0.170551 2.055599 1.000000 -21.566000
H 7.363146 13.936628 6.881575 5.916293 -8.947626 -7.801209 0.062500 10.783000
H 13.705863 12.083191 0.306353 -2.328950 11.000363 1.025858 0.062500 10.783000
O 13.993632 12.107083 0.426537 1.536661 0.258711 -0.145338 1.000000 -21.566000
H 14.172037 12.303464 0.255322 2.111113 -7.973413 -12.495874 0.062500 10.783000
H 0.360166 9.590781 14.362732 1.887751 3.001300 0.250501 0.062500 10.783000
O 0.595941 9.408572 14.511975 0.265937 -1.481658 -1.376898 1.000000 -21.566000
H 0.835744 9.595094 14.613626 2.686015 3.080969 -2.261304 0.062500 10.783000
H 2.587193 13.562885 4.719313 -2.233287 13.429493 8.542795 0.062500 10.783000
O 2.718109 13.554495 4.431070 -2.725369 2.926298 1.972053 1.000000 -21.566000
H 2.902848 13.295536 4.406959 -10.640370 -17.034061 4.210613 0.062500 10.783000
H 9.898821 7.162574 0.269010 12.215303 -12.753354 16.368451 0.062500 10.783000
O 9.921502 7.351602 0.511795 -0.522991 -1.204318 -0.732060 1.000000 -21.566000
H 9.626874 7.463371 0.575557 -8.116920 7.359009 4.491803 0.062500 10.783000
H 12.808598 0.789101 7.729396 0.581184 -2.872304 -12.941900 0.062500 10.783000
O 12.729497 1.042957 7.549728 -5.275847 1.652115 -2.913555 1.000000 -21.566000
H 12.807758 1.027241 7.227525 12.710846 6.412590 -19.963903 0.062500 10.783000
H 4.227702 12.041430 0.217050 5.559809 -4.963865 -3.729128 0.062500 10.783000
O 3.978882 12.052148 0.017098 1.237125 2.236075 -1.630372 1.000000 -21.566000
H 3.865513 11.751302 0.011597 9.335025 -11.615185 1.279095 0.062500 10.783000
H 1.427494 0.850318 14.063650 4.102918 -3.337774 -7.993502 0.062500 10.783000
O 1.370541 1.057260 13.828243 0.040484 1.343541 -0.533050 1.000000 -21.566000
H 1.088110 1.194396 13.875847 6.890359 5.525900 5.478358 0.062500 10.783000
H 3.365289 13.373901 14.168660 -6.197161 1.929798 1.346189 0.062500 10.783000
O 3.296730 13.088976 14.312232 -0.451984 -1.887613 -0.826877 1.000000 -21.566000
H 3.413421 12.844075 14.145729 4.702806 -0.312824 10.287322 0.062500 10.783000
H 14.413024 13.886686 7.469589 -11.460082 0.989605 -19.671536 0.062500 10.783000
O 14.202872 13.993834 7.258245 -1.936205 -0.277185 -1.185225 1.000000 -21.566000
H 13.920660 13.836972 7.301277 -5.133951 -4.718439 -6.437031 0.062500 10.783000
H 13.613764 11.693103 9.883719 8.200601 4.499908 -2.262378 0.062500 10.783000
O 13.874458 11.550407 9.785460 -3.199896 -1.179157 1.533631 1.000000 -21.566000
H 13.918712 11.660717 9.486557 13.322742 -15.152253 -1.867149 0.062500 10.783000
H 8.394167 7.936868 1.764332 -0.550135 12.457133 -2.768781 0.062500 10.783000
O 8.400517 8.129522 1.504562 2.571802 -2.705412 2.033592 1.000000 -21.566000
H 8.157083 8.037091 1.308372 -5.587858 -3.490897 -7.353298 0.062500 10.783000
H 5.796361 13.754333 11.391125 -4.226792 15.325364 1.948077 0.062500 10.783000
O 5.802929 13.678219 11.085289 -6.187182 -0.909893 -1.100902 1.000000 -21.566000
H 5.646130 13.416084 11.039680 -8.577463 3.189081 0.033095 0.062500 10.783000
H 4.949193 13.222335 6.623991 11.203073 -0.261224 -3.202473 0.062500 10.783000
O 5.090366 13.457963 6.815230 1.906954 -0.255874 1.118601 1.000000 -21.566000
H 4.874549 13.572461 7.013989 -2.414132 4.862623 -6.311949 0.062500 10.783000
H 5.094635 9.041980 7.670345 -4.777948 -7.122216 -6.783453 0.062500 10.783000
O 4.855019 9.248327 7.735268 1.850408 1.769445 0.502891 1.000000 -21.566000
H 4.903268 9.483444 7.509445 -17.644072 2.821114 -7.570165 0.062500 10.783000
H 3.977108 2.257386 4.467414 -3.195399 -3.773732 -10.968281 0.062500 10.783000
O 3.685421 2.390198 4.452950 0.293531 -1.893042 -1.222309 1.000000 -21.566000
H 3.503340 2.207977 4.264679 -12.496889 5.488637 6.879997 0.062500 10.783000
H 6.707308 0.218323 10.155988 -15.206223 -15.720369 -1.368940 0.062500 10.783000
O 6.883151 0.014169 10.324845 0.124297 -0.295314 -1.289931 1.000000 -21.566000
H 6.658040 14.546201 10.438607 2.112504 -11.400260 -12.727826 0.062500 10.783000
H 11.615371 12.338492 1.452623 0.340298 8.982312 -5.171408 0.062500 10.783000
O 11.476082 12.449284 1.193016 -1.626435 5.064094 -0.027327 1.000000 -21.566000
H 11.318596 12.705072 1.321990 -3.774405 7.244226 7.618421 0.062500 10.783000
H 8.489803 12.907720 8.128569 14.350735 -12.188760 -7.413198 0.062500 10.783000
O 8.338620 13.133094 7.960089 -0.219170 -4.297319 3.947641 1.000000 -21.566000
H 8.070283 13.248699 8.082607 3.582065 0.080619 9.381562 0.062500 10.783000
H 10.895441 3.208508 7.994794 12.711513 -9.479008 -6.198762 0.062500 10.783000
O 10.882731 3.395742 7.741410 -1.956801 0.907295 -1.144052 1.000000 -21.566000
H 10.648448 3.295862 7.549036 2.521777 -24.662745 14.019374 0.062500 10.783000
H 2.064096 14.570471 3.506424 14.949139 7.791781 0.836712 0.062500 10.783000
O 1.864886 0.067469 3.423941 0.506903 3.449249 1.699511 1.000000 -21.566000
H 2.014984 0.269344 3.227188 -16.038211 -3.194896 -0.293552 0.062500 10.783000
H 9.630599 1.782778 12.853617 -0.249028 -3.420662 15.968334 0.062500 10.783000
O 9.740178 2.077530 12.760129 0.613767 -0.416484 -0.655331 1.000000 -21.566000
H 10.061766 2.070707 12.808368 8.621832 9.319365 22.177654 0.062500 10.783000
H 2.492928 1.789361 3.304604 -4.791372 -14.048503 -4.838615 0.062500 10.783000
O 2.618348 1.672503 3.573336 -0.955961 -1.154596 1.052291 1.000000 -21.566000
H 2.385387 1.592102 3.775993 3.266554 -0.091153 -5.513710 0.062500 10.783000
H 0.550963 12.146331 4.098962 -7.986675 -0.712609 -3.487261 0.062500 10.783000
O 0.258957 12.031375 4.116870 0.369334 -1.876802 -2.008433 1.000000 -21.566000
H 0.130320 12.195257 4.362098 5.433109 -0.645748 1.521235 0.062500 10.783000
H 11.613750 11.227989 2.057255 0.961397 -4.993390 -8.446122 0.062500 10.783000
O 11.896077 11.380088 2.022496 -0.388183 2.335705 1.789589 1.000000 -21.566000
H 12.122266 11.201830 2.152479 6.914710 3.453480 1.855813 0.062500 10.783000
H 7.127000 12.354617 0.421302 2.363590 7.361974 4.563063 0.062500 10.783000
O 6.979592 12.611857 0.284838 -0.120907 -0.373946 -2.374350 1.000000 -21.566000
H 7.000579 12.866970 0.462194 -10.664195 -10.379439 -6.229544 0.062500 10.783000
H 9.100367 2.206331 4.767783 7.815206 1.720435 0.966129 0.062500 10.783000
O 8.921151 1.974985 4.920771 -2.743345 -1.293298 -0.719807 1.000000 -21.566000
H 9.025752 1.700096 4.788934 4.330942 -4.345069 0.855648 0.062500 10.783000
H 8.019418 2.422892 4.090798 -1.324137 -10.348688 1.630423 0.062500 10.783000
O 8.260026 2.621543 4.181197 -1.501119 0.488724 0.125738 1.000000 -21.566000
H 8.545711 2.487319 4.160041 -11.654943 -0.823155 -22.096001 0.062500 10.783000
H 4.752786 1.094818 5.632238 -6.705584 -8.616650 3.748813 0.062500 10.783000
O 4.568195 0.885394 5.498844 2.608642 -4.026043 1.293248 1.000000 -21.566000
H 4.474341 1.006522 5.213661 6.127827 12.065090 -0.409078 0.062500 10.783000
H 13.365495 2.430500 12.970864 -6.842975 18.211768 2.700534 0.062500 10.783000
O 13.120329 2.316027 13.154902 4.141141 1.249486 -0.949682 1.000000 -21.566000
H 13.073309 2.564287 13.357298 -10.052926 0.236682 15.876149 0.062500 10.783000
H 7.035123 4.128251 3.695098 -19.427700 2.386854 4.396236 0.062500 10.783000
O 7.086757 3.854285 3.533478 -0.808551 -0.094595 -0.158209 1.000000 -21.566000
H 7.223793 3.889743 3.248179 -7.308020 1.728270 -1.990341 0.062500 10.783000
H 8.901908 4.020708 2.462881 -10.350482 -4.473633 -17.389179 0.062500 10.783000
O 9.005531 3.819594 2.692987 0.400717 3.547892 0.840928 1.000000 -21.566000
H 8.799442 3.576747 2.673126 6.055681 16.088160 -1.862286 0.062500 10.783000
H 10.500952 14.361151 2.606541 3.849565 4.049864 -5.946280 0.062500 10.783000
O 10.239668 14.188572 2.686813 -0.309497 0.572482 -2.980858 1.000000 -21.566000
H 10.296555 13.909633 2.809162 -1.008392 -6.360162 -12.921231 0.062500 10.783000
H 9.940526 14.237142 2.261307 2.299024 5.501488 5.698306 0.062500 10.783000
O 9.694532 14.273956 2.041370 0.454309 -3.928205 0.891943 1.000000 -21.566000
H 9.852606 14.143218 1.790807 -7.973187 6.835621 9.153234 0.062500 10.783000
H 10.657315 13.082585 1.580574 4.807562 -12.927261 1.029847 0.062500 10.783000
O 10.936085 13.139452 1.409719 1.690797 -0.048267 -1.110607 1.000000 -21.566000
H 11.053519 13.369287 1.606064 -5.773793 -3.773797 9.629526 0.062500 10.783000
H 10.151706 14.295694 9.506441 14.500273 2.840160 9.196336 0.062500 10.783000
O 10.132535 14.092866 9.769806 -1.990685 0.876692 0.775968 1.000000 -21.566000
H 10.237574 14.275559 10.018629 14.443648 -6.310885 -3.826457 0.062500 10.783000
H 11.258250 1.641506 7.917828 -11.266861 -2.074161 10.376748 0.062500 10.783000
O 10.953191 1.711051 7.853593 -0.851217 1.473747 1.798414 1.000000 -21.566000
H 10.807544 1.909003 8.049390 -1.557937 -11.441978 2.274078 0.062500 10.783000
H 13.952000 12.316940 11.283577 2.121450 4.453319 3.444796 0.062500 10.783000
O 14.080631 12.237531 11.563026 -0.447362 -1.283971 4.778207 1.000000 -21.566000
H 14.330447 12.050995 11.505398 4.427957 0.238003 -3.714687 0.062500 10.783000
H 8.587545 9.382573 9.135766 -10.604899 -4.676575 4.455686 0.062500 10.783000
O 8.468370 9.664402 9.214222 1.753283 -3.368622 3.747920 1.000000 -21.566000
H 8.189425 9.702740 9.065927 9.919252 -8.414412 -1.169181 0.062500 10.783000
H 1.527213 12.266987 0.273897 4.478871 4.926520 12.497652 0.062500 10.783000
O 1.698195 12.267159 0.541830 1.019757 -1.746028 -0.195034 1.000000 -21.566000
H 1.887474 12.523900 0.585516 1.949450 9.779351 -14.597550 0.062500 10.783000
H 4.166359 0.222541 12.001056 -0.628752 -5.954461 -7.452006 0.062500 10.783000
O 4.113119 0.523433 11.896198 -1.275070 0.157523 -1.281700 1.000000 -21.566000
H 4.007245 0.630342 12.184869 -10.460652 9.370693 7.239591 0.062500 10.783000
H 6.088135 13.691727 2.558077 -3.129753 0.883093 -13.132958 0.062500 10.783000
O 5.755237 13.739832 2.587685 -2.895755 1.145701 -2.791285 1.000000 -21.566000
H 5.725454 14.036155 2.707293 1.753596 3.440379 -0.691177 0.062500 10.783000
H 4.323517 13.966715 1.669380 -6.009822 5.444622 -7.282730 0.062500 10.783000
O 4.461181 13.822027 1.414574 2.761364 -1.639364 -0.848933 1.000000 -21.566000
H 4.506860 13.527500 1.480958 9.277591 11.134568 13.770307 0.062500 10.783000
H 0.376474 7.614547 1.475336 0.091472 -4.818711 13.409447 0.062500 10.783000
O 0.270575 7.328485 1.379789 4.859146 1.544558 0.459202 1.000000 -21.566000
H 0.343151 7.115826 1.618206 0.058595 -1.470487 -0.063002 0.062500 10.783000
H 10.689249 13.871100 12.623223 -7.150688 20.141588 -4.843337 0.062500 10.783000
O 10.389847 13.969656 12.553928 -1.026711 0.128848 1.132198 1.000000 -21.566000
H 10.242633 14.028284 12.807898 -9.830257 -11.010466 -2.390626 0.062500 10.783000
H 6.806849 5.765332 1.553595 -15.931333 -11.388088 -18.217642 0.062500 10.783000
O 6.811993 5.887889 1.863597 -2.606184 0.275311 1.064736 1.000000 -21.566000
H 6.867020 5.650583 2.065068 -4.129005 0.073742 -3.100461 0.062500 10.783000
H 6.580770 5.516431 4.617915 -4.295715 -9.774595 -20.956435 0.062500 10.783000
O 6.494190 5.233296 4.520547 0.101852 -0.611974 -3.060447 1.000000 -21.566000
H 6.175313 5.243071 4.485141 -1.481133 7.925511 4.380231 0.062500 10.783000
H 8.259628 1.592559 2.400831 17.250442 -6.594220 -7.100969 0.062500 10.783000
O 8.229273 1.842812 2.612235 3.553295 -1.411077 0.245293 1.000000 -21.566000
H 7.962132 1.820309 2.787655 6.790799 16.734836 -1.700385 0.062500 10.783000
H 13.895293 1.347379 2.398175 -2.939801 -1.694434 2.412927 0.062500 10.783000
O 13.824826 1.146124 2.144442 -1.294107 -2.431061 -0.529007 1.000000 -21.566000
H 14.115927 1.039805 2.021506 2.479169 -4.206170 -4.874968 0.062500 10.783000
H 14.640607 0.623418 3.261019 -4.735915 -16.242646 -0.426905 0.062500 10.783000
O 0.220353 0.603460 3.296892 0.427066 -1.137013 2.022816 1.000000 -21.566000
H 0.361059 0.860283 3.426129 -10.354154 -2.172360 -1.306073 0.062500 10.783000
H 1.594546 5.787570 4.883717 -0.878146 -4.218732 -7.268212 0.062500 10.783000
O 1.509550 5.490308 4.994098 0.036529 -2.118339 -0.560344 1.000000 -21.566000
H 1.273948 5.416134 4.780226 6.731580 -6.222958 0.205690 0.062500 10.783000
H 13.560337 14.464495 5.186327 1.251813 3.787001 -6.439309 0.062500 10.783000
O 13.474656 14.443347 5.503998 -2.103283 0.981741 -0.592826 1.000000 -21.566000
H 13.158698 14.462137 5.517876 3.750302 3.327686 1.746234 0.062500 10.783000
H 2.856512 13.900852 8.530826 8.564239 9.139606 -4.639968 0.062500 10.783000
O 2.915035 13.692176 8.756698 -0.663673 -1.532086 0.054873 1.000000 -21.566000
H 3.219213 13.754637 8.804091 -12.062779 -3.870650 -5.856768 0.062500 10.783000
H 0.826064 7.699900 5.715413 4.525212 -3.865914 -0.999348 0.062500 10.783000
O 0.849022 7.475207 5.473422 1.493651 -1.506923 0.908032 1.000000 -21.566000
H 0.993989 7.592148 5.217762 6.814297 -5.119734 1.746152 0.062500 10.783000
H 5.692250 12.126705 3.495139 5.337345 2.772261 5.755648 0.062500 10.783000
O 5.642758 12.285673 3.759049 -1.432345 0.238636 1.830971 1.000000 -21.566000
H 5.332732 12.341618 3.801712 13.298054 11.114229 6.771925 0.062500 10.783000
H 4.741972 1.950401 5.913967 5.984507 -9.241505 2.834947 0.062500 10.783000
O 4.535099 1.705002 5.944641 1.734936 -1.245726 0.512602 1.000000 -21.566000
H 4.564320 1.583068 6.241008 -12.984066 11.039763 -1.626979 0.062500 10.783000
H 5.851357 5.731366 2.484681 4.340671 -6.397167 -12.740052 0.062500 10.783000
O 5.812098 5.571460 2.212530 -1.931297 1.006323 -1.824557 1.000000 -21.566000
H 5.908272 5.267011 2.227421 6.616433 7.808366 2.159081 0.062500 10.783000
H 10.353743 14.155354 13.626653 -5.698549 -4.329635 0.853737 0.062500 10.783000
O 10.435485 14.344885 13.384750 -0.606971 3.525070 -0.455547 1.000000 -21.566000
H 10.598735 14.614513 13.434211 11.178542 -3.574212 1.095936 0.062500 10.783000
H 0.865725 6.011480 0.224476 -6.339068 -1.585940 -15.096832 0.062500 10.783000
O 0.560530 5.985264 0.305787 0.153155 2.165095 -0.227020 1.000000 -21.566000
H 0.450710 5.705688 0.167146 0.396280 -0.837977 8.317153 0.062500 10.783000
H 5.010697 7.211866 0.701470 -5.828810 2.325191 -0.759880 0.062500 10.783000
O 5.059949 7.470794 0.515355 -2.243257 2.600559 -1.553297 1.000000 -21.566000
H 5.299395 7.632834 0.660353 -3.122307 3.236207 7.771025 0.062500 10.783000
H 2.460267 10.890604 3.771601 -11.665418 4.294108 -2.923526 0.062500 10.783000
O 2.518114 11.037634 3.484225 1.647880 2.917349 -0.093816 1.000000 -21.566000
H 2.270264 11.001682 3.285296 0.611394 4.528139 -0.143569 0.062500 10.783000
H 8.704349 1.835660 6.664710 1.721306 -10.874131 -11.058238 0.062500 10.783000
O 8.903562 1.972990 6.451980 1.182135 0.363726 -1.971965 1.000000 -21.566000
H 8.744331 1.983622 6.159333 -3.908011 -5.934161 -8.299963 0.062500 10.783000
H 11.958702 12.421162 14.652101 2.225390 -17.334218 -6.777266 0.062500 10.783000
O 12.239058 12.456618 14.498919 1.617978 -0.845221 1.271358 1.000000 -21.566000
H 12.175208 12.596419 14.218060 -4.418488 9.616102 5.678082 0.062500 10.783000
H 11.667511 2.378978 1.938849 19.832278 9.316085 0.045510 0.062500 10.783000
O 11.750442 2.162064 2.160770 1.864445 -4.922825 -1.249718 1.000000 -21.566000
H 11.519791 1.934615 2.140186 -8.041664 10.931413 -0.840191 0.062500 10.783000
H 1.550428 13.735402 0.622014 -6.897593 1.363696 3.347515 0.062500 10.783000
O 1.600435 13.476038 0.798089 1.772165 0.088808 -0.338325 1.000000 -21.566000
H 1.850973 13.355309 0.627988 -2.503249 1.195135 5.271387 0.062500 10.783000
H 9.714646 1.652886 5.679986 3.096708 -16.315008 -13.057281 0.062500 10.783000
O 9.766634 1.982646 5.666669 0.240445 2.234668 1.735671 1.000000 -21.566000
H 9.877377 2.047540 5.369547 1.014525 1.260410 -3.758532 0.062500 10.783000
H 3.333621 12.469876 3.471354 16.465710 -7.010516 12.298447 0.062500 10.783000
O 3.295945 12.754187 3.603013 0.654482 -0.879007 1.766360 1.000000 -21.566000
H 3.096479 12.951906 3.432590 -4.637428 -11.651807 -3.386091 0.062500 10.783000
H 14.107833 3.427709 4.478168 3.914930 -2.876745 -2.858837 0.062500 10.783000
O 14.192602 3.710717 4.609865 0.209250 -1.438490 0.317000 1.000000 -21.566000
H 14.105762 3.969818 4.423773 -4.849807 1.973133 -1.834295 0.062500 10.783000
H 2.847165 6.932381 0.548087 -0.725712 12.982855 2.092136 0.062500 10.783000
O 3.046411 7.139996 0.683307 -0.129747 -3.979013 1.983198 1.000000 -21.566000
H 3.169190 7.056775 0.977204 9.605776 -8.234308 5.817591 0.062500 10.783000
H 5.275194 7.135167 1.864708 -12.958361 10.209689 -9.121382 0.062500 10.783000
O 5.288804 7.461348 1.895900 -1.338357 -1.750138 0.888304 1.000000 -21.566000
H 4.986118 7.535701 1.826627 6.441988 3.267934 7.900157 0.062500 10.783000
H 5.503014 4.505964 6.841161 3.322234 -10.389438 7.619389 0.062500 10.783000
O 5.509116 4.705446 7.084020 2.156858 -0.175787 1.991687 1.000000 -21.566000
H 5.368335 4.997002 7.025090 -6.542139 0.850083 -4.334477 0.062500 10.783000
H 5.787867 4.043712 4.079374 5.710619 -2.034544 5.472019 0.062500 10.783000
O 6.078133 3.973832 4.195744 1.615261 1.228270 2.339438 1.000000 -21.566000
H 6.120950 3.660109 4.272396 -1.134200 -7.942635 -4.126842 0.062500 10.783000
H 8.145663 2.693479 4.715977 10.714812 -13.737295 5.326527 0.062500 10.783000
O 8.003781 2.759836 4.986683 1.586302 -0.598012 -3.271119 1.000000 -21.566000
H 8.202361 2.942755 5.145178 -8.860367 2.189398 8.280259 0.062500 10.783000
H 6.190111 12.539388 11.750991 -13.903858 1.754967 5.525898 0.062500 10.783000
O 6.428363 12.478544 11.545068 -1.944226 -1.428729 1.132829 1.000000 -21.566000
H 6.625262 12.733550 11.539104 -10.911500 -1.883950 11.236748 0.062500 10.783000
H 10.645919 6.789328 14.621594 6.468493 -3.298537 -7.873469 0.062500 10.783000
O 10.545204 6.716731 0.172910 -2.302291 3.209941 -1.035017 1.000000 -21.566000
H 10.566569 6.391043 0.209947 2.378407 -6.393604 2.432906 0.062500 10.783000
H 7.565074 2.332578 6.491603 3.222086 3.717392 6.626442 0.062500 10.783000
O 7.662308 2.607205 6.635448 1.306978 1.136070 0.962229 1.000000 -21.566000
H 7.468502 2.854767 6.549456 -3.638131 -5.212817 0.056001 0.062500 10.783000
H 11.290366 6.432531 2.955225 3.758477 10.089414 -0.099835 0.062500 10.783000
O 11.456373 6.633593 3.139173 1.929800 -0.856037 -0.420890 1.000000 -21.566000
H 11.327568 6.553016 3.435525 2.753700 15.981994 -2.173474 0.062500 10.783000
H 3.327595 4.094551 2.247062 -2.725900 -6.161851 6.125132 0.062500 10.783000
O 3.548480 3.865483 2.270519 0.341324 2.443287 -0.622299 1.000000 -21.566000
H 3.542300 3.772080 2.584503 -1.903823 8.321387 6.797510 0.062500 10.783000
H 8.682122 10.450790 14.409469 -3.029977 10.173319 -7.586317 0.062500 10.783000
O 8.589536 10.138843 14.424158 0.693895 0.667813 0.561169 1.000000 -21.566000
H 8.552439 10.034950 14.726756 9.028538 3.336199 -7.072621 0.062500 10.783000
H 13.945689 7.071058 2.615239 -2.471279 -3.219598 -5.122273 0.062500 10.783000
O 13.962841 7.252284 2.358144 -0.575627 3.200956 -0.397547 1.000000 -21.566000
H 14.038871 7.056870 2.102648 6.786923 -13.559725 -1.030215 0.062500 10.783000
H 2.453224 1.558927 1.910007 -10.730146 -6.492002 9.223516 0.062500 10.783000
O 2.217419 1.501545 1.695331 -1.621550 -1.686730 -1.381389 1.000000 -21.566000
H 2.304972 1.380525 1.412065 -0.013962 -11.937847 5.627105 0.062500 10.783000
H 14.673227 0.655570 2.020122 -6.121506 7.955056 11.635647 0.062500 10.783000
O 14.594253 0.911518 1.845032 1.014802 -2.344753 -0.894509 1.000000 -21.566000
H 14.515684 0.834687 1.541890 -2.032165 -8.738090 -4.072617 0.062500 10.783000
H 10.910786 6.125503 2.395822 -0.753093 8.428289 4.852542 0.062500 10.783000
O 11.086374 6.095158 2.664682 2.219864 2.952317 1.150091 1.000000 -21.566000
H 11.295708 5.865007 2.591049 6.058028 1.831007 -5.168841 0.062500 10.783000
H 13.065094 6.185731 13.009720 6.839291 -10.168667 -17.392530 0.062500 10.783000
O 12.753356 6.282309 13.058625 0.865075 -0.094684 -3.146803 1.000000 -21.566000
H 12.597891 6.003360 13.123969 12.367875 -0.844089 7.185906 0.062500 10.783000
H 0.544224 0.907218 6.284417 1.193236 2.147200 -10.256411 0.062500 10.783000
O 0.650387 1.161848 6.110870 1.463464 2.295378 3.757396 1.000000 -21.566000
H 0.843041 1.037458 5.891992 -14.103856 2.329895 -2.514692 0.062500 10.783000
H 6.863325 8.141165 13.332700 3.257816 0.792265 2.393397 0.062500 10.783000
O 7.049041 7.875893 13.299894 2.038225 1.340216 1.260958 1.000000 -21.566000
H 6.932962 7.659913 13.508467 2.986079 6.489179 -12.127298 0.062500 10.783000
H 2.156237 6.121042 7.160846 1.328721 -5.086242 0.724060 0.062500 10.783000
O 2.271740 6.153003 6.869827 0.874745 -1.685777 -3.937242 1.000000 -21.566000
H 2.292032 5.840987 6.781834 6.944333 -6.730955 2.081003 0.062500 10.783000
H 0.335479 3.254525 4.540570 -4.537104 8.673736 -1.658717 0.062500 10.783000
O 0.223683 2.977735 4.640745 -0.318539 0.211400 0.926676 1.000000 -21.566000
H 0.464393 2.823564 4.772375 -18.366456 -10.414204 5.050228 0.062500 10.783000
H 9.417633 10.736544 3.048006 -12.180415 -12.911522 3.039543 0.062500 10.783000
O 9.399494 10.966197 2.820042 1.197202 0.946466 -3.833405 1.000000 -21.566000
H 9.093356 11.040037 2.837437 -3.263256 -6.199104 -10.581693 0.062500 10.783000
H 5.732773 6.289458 1.151822 -1.156784 -6.618422 -0.377526 0.062500 10.783000
O 5.487410 6.116981 1.026983 0.523187 2.386412 -1.725125 1.000000 -21.566000
H 5.424205 5.862439 1.222857 10.033327 10.426237 1.512065 0.062500 10.783000
H 2.668190 5.437139 0.492579 -2.185292 3.925290 2.123901 0.062500 10.783000
O 2.365891 5.530842 0.436640 0.718534 -1.667827 -1.243750 1.000000 -21.566000
H 2.345828 5.849519 0.429700 5.052175 -3.123710 5.350484 0.062500 10.783000
H 0.394748 6.965912 6.336333 -6.929296 18.156167 9.068853 0.062500 10.783000
O 0.467356 7.091506 6.625839 1.448815 0.935371 1.885690 1.000000 -21.566000
H 0.347313 7.386541 6.611175 11.623526 -5.807521 -0.848029 0.062500 10.783000
H 11.996315 2.468024 1.298511 -4.942982 -3.496245 -15.649851 0.062500 10.783000
O 11.711365 2.610770 1.384067 -1.764121 -0.517408 2.206643 1.000000 -21.566000
H 11.621523 2.747832 1.103598 -4.587939 8.422490 16.894921 0.062500 10.783000
H 0.850425 2.927677 2.559500 -8.464876 -9.319177 3.084554 0.062500 10.783000
O 0.589691 2.765772 2.531867 2.013821 1.624210 -0.742823 1.000000 -21.566000
H 0.559389 2.572962 2.785104 4.764472 1.775696 -5.212770 0.062500 10.783000
H 2.956442 11.337496 2.193300 11.460583 -10.792871 -1.238365 0.062500 10.783000
O 2.661572 11.192906 2.215051 -0.855850 1.534010 -2.440037 1.000000 -21.566000
H 2.706333 10.915176 2.378115 -1.780979 7.480078 0.980010 0.062500 10.783000
H 14.056891 10.755244 2.559456 4.925316 0.490280 1.818321 0.062500 10.783000
O 14.260842 10.990382 2.635173 2.770504 -1.531060 -2.735796 1.000000 -21.566000
H 14.415619 11.096486 2.372524 0.568395 -10.330873 7.536682 0.062500 10.783000
H 14.174244 3.751974 6.239112 -1.030373 9.204664 -2.175410 0.062500 10.783000
O 14.457431 3.618288 6.156554 -3.249403 -3.747268 -1.227472 1.000000 -21.566000
H 14.365870 3.300464 6.175141 -0.053420 -0.253908 -1.100225 0.062500 10.783000
H 13.351298 3.654268 6.476916 -10.900597 1.999237 5.804674 0.062500 10.783000
O 13.252986 3.691041 6.776797 0.331273 -2.840261 1.284336 1.000000 -21.566000
H 13.442475 3.919941 6.893981 -2.298675 5.483203 -0.186690 0.062500 10.783000
H 14.055186 3.984256 5.213396 5.291656 -0.228998 -0.262531 0.062500 10.783000
O 14.097902 4.201748 5.441141 -1.149643 -1.211435 0.999438 1.000000 -21.566000
H 14.402273 4.187493 5.547775 -5.542077 7.412077 10.213414 0.062500 10.783000
H 2.610037 8.901654 6.775149 0.283162 -0.803973 -0.205737 0.062500 10.783000
O 2.314618 8.767615 6.784673 -4.381980 0.444033 -2.778589 1.000000 -21.566000
H 2.334052 8.511515 6.965827 -2.066724 0.683798 -5.698158 0.062500 10.783000
H 0.763802 4.388025 5.626271 6.075139 -11.546792 6.924156 0.062500 10.783000
O 0.966253 4.617265 5.568560 1.179914 1.319216 -0.608217 1.000000 -21.566000
H 0.865991 4.785039 5.320891 13.481675 -1.956482 -16.668000 0.062500 10.783000
H 4.064237 3.000610 5.206707 3.984017 -11.349585 2.542896 0.062500 10.783000
O 3.990968 3.080322 4.904256 3.754667 0.111102 1.552279 1.000000 -21.566000
H 3.832438 2.831255 4.749338 -13.188678 -6.864775 15.365156 0.062500 10.783000
H 3.948435 6.488726 0.388358 1.985322 14.210692 2.478258 0.062500 10.783000
O 4.205202 6.312597 0.463959 0.230527 2.748171 -0.369123 1.000000 -21.566000
H 4.275018 6.098253 0.251826 3.445223 11.660332 2.378210 0.062500 10.783000
H 10.520540 4.366931 4.189876 -1.986928 9.447690 6.479218 0.062500 10.783000
O 10.831222 4.308268 4.209466 -2.146513 3.690968 0.019521 1.000000 -21.566000
H 10.892107 4.153564 4.483492 -11.945361 1.555382 -6.970711 0.062500 10.783000
H 5.622017 6.729063 14.298287 -3.430949 2.037384 8.548427 0.062500 10.783000
O 5.879363 6.562695 14.405422 0.452372 -0.500101 -0.893034 1.000000 -21.566000
H 5.897046 6.297789 14.213536 -3.789583 -0.474993 -2.353678 0.062500 10.783000
H 8.145779 4.965760 7.472186 -3.991277 -4.115915 -1.369614 0.062500 10.783000
O 8.416146 5.115933 7.370366 2.476746 1.486141 -1.656548 1.000000 -21.566000
H 8.535621 5.290433 7.608860 5.335017 4.122064 -2.370879 0.062500 10.783000
H 10.856409 8.610745 3.814069 -12.315441 0.548673 -2.677370 0.062500 10.783000
O 10.788949 8.649220 4.128905 1.345224 1.438498 -0.511484 1.000000 -21.566000
H 11.040994 8.786144 4.280173 -10.637588 -0.385317 6.503187 0.062500 10.783000
H 13.905381 6.673512 14.256775 -2.654045 2.435792 -0.552190 0.062500 10.783000
O 13.994214 6.425367 14.439558 -2.038954 0.557548 1.044391 1.000000 -21.566000
H 14.309636 6.388957 14.372758 10.438408 -7.417781 0.381112 0.062500 10.783000
H 10.014437 2.493123 4.866125 -11.103286 4.296695 7.449731 0.062500 10.783000
O 10.167592 2.211349 4.895809 1.494076 -1.154840 0.399870 1.000000 -21.566000
H 10.379704 2.307230 4.676300 11.853403 -1.264544 9.235258 0.062500 10.783000
H 12.605301 8.055307 14.046389 -0.494751 4.231794 4.997353 0.062500 10.783000
O 12.481426 7.946141 14.316383 -0.265962 -3.078357 2.848859 1.000000 -21.566000
H 12.327658 8.212102 14.447507 -11.038628 5.105423 -15.374430 0.062500 10.783000
H 0.196184 6.001832 4.247129 -1.079873 -7.042088 0.289696 0.062500 10.783000
O 0.112604 6.184284 3.982666 -3.879457 -0.459990 -0.280675 1.000000 -21.566000
H 14.624475 6.398139 4.068073 11.426283 -1.310941 6.281794 0.062500 10.783000
H 13.380373 8.600200 8.691905 -1.264369 -1.830042 2.627143 0.062500 10.783000
O 13.121841 8.508595 8.535368 -0.044089 1.214697 -0.659000 1.000000 -21.566000
H 12.993482 8.768449 8.399433 4.407682 -0.307804 -10.826857 0.062500 10.783000
H 8.400161 0.107140 0.733359 15.591097 -1.764682 -0.497482 0.062500 10.783000
O 8.381406 0.377643 0.558265 0.171287 0.413162 -0.711684 1.000000 -21.566000
H 8.671155 0.498276 0.484671 0.854167 -0.097513 8.255072 0.062500 10.783000
H 14.235401 3.812623 1.997009 3.313637 6.254662 4.703758 0.062500 10.783000
O 14.250688 4.094097 1.837055 0.373768 0.113997 -2.267798 1.000000 -21.566000
H 14.437645 4.250671 2.048828 -10.181154 0.484876 9.642133 0.062500 10.783000
H 1.745791 3.252420 7.248029 -6.814164 2.515757 10.535058 0.062500 10.783000
O 1.809460 2.996644 7.069268 2.261788 -2.677945 -1.379124 1.000000 -21.566000
H 2.088693 2.854832 7.166737 5.990004 -8.769812 0.780421 0.062500 10.783000
H 1.647688 9.877700 5.647171 1.521011 -10.955022 -1.834893 0.062500 10.783000
O 1.497799 9.648827 5.824124 -1.579002 -2.521742 1.535432 1.000000 -21.566000
H 1.438271 9.747297 6.119299 -10.543572 7.157784 -11.108842 0.062500 10.783000
H 4.114313 4.943790 5.406163 13.800405 8.269670 0.514491 0.062500 10.783000
O 4.097439 4.696806 5.598919 -0.206091 -1.217578 -0.430376 1.000000 -21.566000
H 4.049999 4.412140 5.459622 8.746894 7.162385 2.937346 0.062500 10.783000
H 5.412999 5.543052 5.921310 2.772891 11.979768 19.338861 0.062500 10.783000
O 5.373028 5.764215 5.700858 0.338534 1.589371 -3.246955 1.000000 -21.566000
H 5.148452 5.665771 5.490031 -3.000242 14.416304 4.092716 0.062500 10.783000
H 14.509352 5.254602 6.184049 2.035809 2.303061 -3.348715 0.062500 10.783000
O 14.401124 4.999476 6.024072 -2.740246 0.801312 0.690703 1.000000 -21.566000
H 14.083031 5.026993 5.985491 -12.113777 -1.786385 -18.728385 0.062500 10.783000
H 4.955865 7.543120 4.605615 5.243100 -2.949207 -7.961929 0.062500 10.783000
O 4.908863 7.851386 4.692307 3.142819 0.466456 -4.019642 1.000000 -21.566000
H 4.594367 7.847838 4.739852 0.345564 4.784707 -5.986586 0.062500 10.783000
H 13.191897 4.794833 3.555342 2.460857 10.464425 5.190256 0.062500 10.783000
O 13.080735 4.585244 3.769755 -1.000730 0.927650 -2.100336 1.000000 -21.566000
H 12.803155 4.632202 3.920784 1.711657 -5.100354 -6.806337 0.062500 10.783000
H 14.007433 6.404570 1.737854 -8.228600 -7.751271 -3.385516 0.062500 10.783000
O 14.327178 6.442298 1.808507 1.378033 4.245673 1.111697 1.000000 -21.566000
H 14.436231 6.365117 1.510989 -1.136711 -9.773298 -3.235593 0.062500 10.783000
H 12.023289 6.395591 6.790587 -11.992066 -7.362488 -3.378871 0.062500 10.783000
O 12.278139 6.253931 6.643434 0.381111 -2.219940 3.259909 1.000000 -21.566000
H 12.302818 6.335719 6.343534 4.674250 -0.623025 1.409462 0.062500 10.783000
H 7.808765 13.534440 11.686366 -10.744624 -10.400113 3.887017 0.062500 10.783000
O 7.778055 13.649571 11.982736 2.638685 2.808692 -0.258160 1.000000 -21.566000
H 7.754345 13.394063 12.167650 -10.494718 -1.495723 3.910184 0.062500 10.783000
H 8.995363 8.970682 3.860535 10.097126 -2.766810 -11.702884 0.062500 10.783000
O 9.038788 9.277379 3.794721 0.044404 0.606731 0.630357 1.000000 -21.566000
H 9.076551 9.293310 3.468516 -5.748815 2.744942 2.861690 0.062500 10.783000
H 7.789399 9.951360 5.790348 8.199662 0.827492 -0.621208 0.062500 10.783000
O 8.004544 9.748481 5.648575 -2.900105 2.005485 -0.047545 1.000000 -21.566000
H 8.196877 9.895788 5.434021 6.314649 1.170587 0.300039 0.062500 10.783000
H 13.920276 1.671045 5.791237 -9.097228 -0.441530 1.312498 0.062500 10.783000
O 14.039508 1.451922 5.583783 1.063591 -0.319405 2.686177 1.000000 -21.566000
H 13.979066 1.605314 5.294142 5.945046 -11.220945 2.939988 0.062500 10.783000
H 2.243109 2.196872 5.683414 -10.954585 4.594006 8.724496 0.062500 10.783000
O 1.963463 2.267594 5.572278 -1.514120 -0.580983 1.002401 1.000000 -21.566000
H 1.868335 2.475486 5.791564 4.592405 8.257784 -5.425915 0.062500 10.783000
H 12.825863 3.596079 5.117223 10.419192 -7.548039 7.868269 0.062500 10.783000
O 13.084423 3.405948 5.134303 1.100937 1.735808 -7.024432 1.000000 -21.566000
H 13.245070 3.430552 5.406038 -16.807458 -6.697810 1.520670 0.062500 10.783000
H 3.822487 4.475227 2.949690 7.288935 4.875736 -12.680739 0.062500 10.783000
O 3.965030 4.760166 2.923523 -0.263673 -1.544855 -0.406616 1.000000 -21.566000
H 3.751240 5.000863 2.908204 7.598790 -4.594576 -1.277041 0.062500 10.783000
H 2.997787 1.669646 2.166536 0.101498 -14.714424 -8.644448 0.062500 10.783000
O 2.994671 1.981743 2.123540 0.283608 0.428846 -5.959317 1.000000 -21.566000
H 3.288285 2.101285 2.172868 -0.251409 -2.309510 -0.727440 0.062500 10.783000
H 3.237115 8.397326 6.807989 -5.555940 -3.117372 -12.074523 0.062500 10.783000
O 3.212866 8.453622 6.501935 3.949631 1.502371 1.836444 1.000000 -21.566000
H 3.154658 8.210608 6.299946 11.221178 8.619953 -5.091308 0.062500 10.783000
H 4.855305 2.477102 6.202095 -5.956899 5.423261 2.692110 0.062500 10.783000
O 5.047811 2.386553 5.950954 1.226659 0.176144 -0.041811 1.000000 -21.566000
H 5.245409 2.629562 5.856655 -15.388070 5.549726 -17.954472 0.062500 10.783000
H 6.823585 5.894906 13.267074 13.039691 6.406859 -8.677515 0.062500 10.783000
O 6.834271 6.191580 13.383059 2.025640 -0.717065 4.054159 1.000000 -21.566000
H 6.774676 6.397208 13.145533 23.191763 9.764646 5.675253 0.062500 10.783000
H 6.386568 7.908931 8.993099 -5.068801 0.316789 -4.453381 0.062500 10.783000
O 6.469809 7.629317 9.117483 0.804969 -1.652459 -1.121225 1.000000 -21.566000
H 6.357616 7.379310 8.935245 -3.499323 -9.524421 -3.900318 0.062500 10.783000
H 14.162250 10.012656 3.707990 11.641524 12.454071 -6.110841 0.062500 10.783000
O 13.860160 10.107114 3.676233 1.234398 1.637898 -1.017866 1.000000 -21.566000
H 13.806979 10.121527 3.355686 -4.626906 9.549887 -2.536505 0.062500 10.783000
H 12.378775 6.403361 1.569981 1.106376 2.706456 3.736525 0.062500 10.783000
O 12.561355 6.666180 1.551348 1.481394 5.465713 1.025352 1.000000 -21.566000
H 12.425151 6.825533 1.323846 -1.160163 -0.598053 4.784633 0.062500 10.783000
H 9.987169 9.635286 0.255457 -9.232217 1.001416 -15.296338 0.062500 10.783000
O 10.241771 9.468426 0.367713 -0.473527 -1.718620 -2.246872 1.000000 -21.566000
H 10.157337 9.428774 0.680288 12.602782 7.083104 10.035500 0.062500 10.783000
H 9.881685 6.870052 5.436900 -3.589859 -2.861845 1.234829 0.062500 10.783000
O 9.897318 6.859885 5.110279 -1.561080 1.199103 0.549690 1.000000 -21.566000
H 9.747638 7.113579 4.982944 3.158210 0.952402 0.257382 0.062500 10.783000
H 5.410203 7.272227 12.282585 -0.505968 3.202818 0.237899 0.062500 10.783000
O 5.289085 7.016334 12.128756 -0.961330 -0.081703 -1.962137 1.000000 -21.566000
H 5.127482 7.117031 11.877987 1.166326 -4.024921 9.013342 0.062500 10.783000
H 7.618091 7.982126 7.055116 8.270592 9.579729 -3.197576 0.062500 10.783000
O 7.838658 7.973488 7.282264 1.812753 -1.088414 2.964770 1.000000 -21.566000
H 8.117216 8.043979 7.120261 1.255703 -3.186680 -0.748333 0.062500 10.783000
H 3.532980 10.754997 12.355864 -7.176941 -0.961969 12.002086 0.062500 10.783000
O 3.354134 10.567273 12.549693 -1.192640 1.716353 0.488040 1.000000 -21.566000
H 3.521919 10.510694 12.817332 -7.126292 0.242005 3.434971 0.062500 10.783000
H 13.598240 8.031538 4.118994 -7.004502 5.217104 -3.204317 0.062500 10.783000
O 13.461500 8.316220 4.166509 0.722840 -2.076967 -2.654575 1.000000 -21.566000
H 13.203678 8.350933 3.979147 2.562116 6.509055 -10.296152 0.062500 10.783000
H 0.719033 4.209459 4.655183 1.503991 -4.395045 -0.264632 0.062500 10.783000
O 0.910677 4.066199 4.437996 1.283376 -1.035007 -0.497527 1.000000 -21.566000
H 1.096918 3.870118 4.591409 -2.624341 -4.718405 -1.694888 0.062500 10.783000
H 1.230541 4.925958 5.938157 4.510779 3.534145 -2.045436 0.062500 10.783000
O 1.404516 5.138496 6.086761 -0.801186 -0.752630 -0.387070 1.000000 -21.566000
H 1.418333 5.031914 6.392667 -3.559150 -13.281853 7.041456 0.062500 10.783000
H 14.527556 8.905331 4.579314 16.731343 -1.167884 6.392736 0.062500 10.783000
O 0.031866 8.916011 4.783183 0.018480 0.242162 5.445778 1.000000 -21.566000
H 14.653106 8.883483 5.087544 -2.724725 -15.984496 7.281222 0.062500 10.783000
H 7.462146 10.557775 13.187995 -6.875825 -0.998219 6.148786 0.062500 10.783000
O 7.421614 10.824210 13.361891 -2.541243 3.049175 0.926398 1.000000 -21.566000
H 7.582956 10.776714 13.644637 -8.106009 -1.678503 11.805963 0.062500 10.783000
H 8.541509 12.374168 13.785165 8.395772 7.836367 -5.884702 0.062500 10.783000
O 8.515476 12.258312 13.490273 0.942820 -2.153998 0.851255 1.000000 -21.566000
H 8.206777 12.307153 13.411942 5.071806 5.861914 7.615243 0.062500 10.783000
H 8.735396 10.558757 1.162639 3.163574 9.376348 13.002052 0.062500 10.783000
O 8.701557 10.871921 1.117353 -2.303146 0.380660 -3.768685 1.000000 -21.566000
H 8.509120 10.976631 1.343351 3.951708 1.103104 -0.647927 0.062500 10.783000
H 11.635570 9.683016 1.082458 -5.390910 -0.897760 11.269817 0.062500 10.783000
O 11.943589 9.756612 1.133184 0.072076 -4.069439 1.272674 1.000000 -21.566000
H 12.111143 9.507339 1.032130 -15.623289 -9.176366 -1.395397 0.062500 10.783000
H 13.286850 9.817297 10.177102 -7.943109 1.613088 -5.009079 0.062500 10.783000
O 13.164690 9.806396 9.888560 3.226420 1.410756 0.068663 1.000000 -21.566000
H 13.283931 10.025798 9.686400 1.449039 -14.258385 -4.825372 0.062500 10.783000
H 8.566914 6.838617 13.569979 4.597749 6.742133 1.426687 0.062500 10.783000
O 8.687659 6.639943 13.798991 -0.744079 -2.014946 0.049809 1.000000 -21.566000
H 8.712384 6.803171 14.077940 0.679969 8.071840 7.571286 0.062500 10.783000
H 4.586959 3.493525 9.368174 -4.760532 4.295543 -10.293874 0.062500 10.783000
O 4.813948 3.620585 9.189139 1.327446 -1.593817 1.961787 1.000000 -21.566000
H 4.679198 3.729879 8.917005 -12.533962 -2.261070 2.008232 0.062500 10.783000
H 8.061296 7.766536 2.365761 2.094839 -6.607046 5.773563 0.062500 10.783000
O 8.341228 7.687853 2.229441 -0.921365 0.764321 -0.549515 1.000000 -21.566000
H 8.554417 7.621128 2.461721 4.993943 10.303405 7.684550 0.062500 10.783000
H 13.366077 9.809356 3.954529 -15.821578 18.537360 -8.791450 0.062500 10.783000
O 13.179481 9.656699 4.150316 -0.166233 3.293353 2.524131 1.000000 -21.566000
H 13.026634 9.871764 4.335544 -6.552929 -7.526896 11.022328 0.062500 10.783000
H 12.639819 10.814940 12.037431 -5.149651 13.780258 14.967761 0.062500 10.783000
O 12.320825 10.819429 11.995521 -3.098746 2.138464 0.321333 1.000000 -21.566000
H 12.268123 10.991325 11.716014 7.659718 0.066092 -11.739198 0.062500 10.783000
H 12.925241 7.935786 12.510275 -3.568294 2.836426 -2.285214 0.062500 10.783000
O 13.041888 8.121838 12.765442 -3.882334 3.289448 0.383806 1.000000 -21.566000
H 13.293155 7.946244 12.897242 -3.314789 4.942403 -0.317953 0.062500 10.783000
H 14.300886 3.128304 3.835836 4.095930 13.893330 -8.630717 0.062500 10.783000
O 14.447252 3.315159 3.630271 0.641076 -0.407269 -0.916556 1.000000 -21.566000
H 0.026577 3.328139 3.679905 -4.198636 -5.519930 -13.265766 0.062500 10.783000
H 0.353093 8.249332 5.350463 4.879678 15.338547 11.516850 0.062500 10.783000
O 0.052140 8.212504 5.469572 0.997899 0.634453 -0.140346 1.000000 -21.566000
H 14.624719 8.044417 5.273721 3.467233 22.954187 0.949016 0.062500 10.783000
H 12.090790 14.336404 0.048604 6.748080 8.046402 -5.875554 0.062500 10.783000
O 12.281004 14.137085 14.638916 1.626759 3.398322 1.265171 1.000000 -21.566000
H 12.231492 13.840356 0.011965 5.787750 16.466085 7.337374 0.062500 10.783000
H 1.001101 10.608194 5.092545 -0.519391 -7.964470 12.474419 0.062500 10.783000
O 0.929983 10.690768 5.391477 0.032210 -0.322693 3.918283 1.000000 -21.566000
H 1.192704 10.868233 5.483391 -13.468590 16.209860 9.101865 0.062500 10.783000
H 6.885912 13.303873 11.913424 -6.640527 -3.485077 -2.763461 0.062500 10.783000
O 6.926835 13.280229 11.588522 -0.352239 1.284375 0.786481 1.000000 -21.566000
H 7.085850 13.545527 11.539080 5.038458 -5.884627 -6.840585 0.062500 10.783000
H 5.048028 14.347517 10.435281 -3.874270 4.232966 14.282317 0.062500 10.783000
O 5.017741 14.050381 10.545939 1.432582 -1.252060 1.757624 1.000000 -21.566000
H 4.803760 13.941421 10.320190 3.541762 -2.379847 4.774783 0.062500 10.783000
H 13.135208 1.144775 4.894904 -1.046427 -4.177261 4.826734 0.062500 10.783000
O 13.330692 1.057704 4.657854 -1.598166 -2.203694 0.515673 1.000000 -21.566000
H 13.610857 1.218037 4.664960 -0.238830 -6.038442 -7.560959 0.062500 10.783000
H 13.844027 9.630740 13.337951 4.480069 4.941169 -3.741827 0.062500 10.783000
O 13.997925 9.775205 13.568800 0.112118 -1.692751 -0.346243 1.000000 -21.566000
H 13.976039 10.101752 13.523452 -2.125193 10.855936 -6.569790 0.062500 10.783000
H 7.897433 13.375634 1.588048 -4.987791 -13.706446 5.604557 0.062500 10.783000
O 7.687187 13.618184 1.524822 0.137793 -4.448333 -1.118153 1.000000 -21.566000
H 7.472842 13.506227 1.318880 -2.527810 15.469502 -4.444538 0.062500 10.783000
H 5.325338 13.108691 1.165722 6.807061 -1.711981 4.290567 0.062500 10.783000
O 5.309406 12.845649 0.992982 -2.646591 -1.037876 1.361506 1.000000 -21.566000
H 5.258226 12.606918 1.197787 5.239860 -10.640237 -2.741518 0.062500 10.783000
H 14.466483 7.837853 4.678856 -13.569738 -8.716644 -7.268827 0.062500 10.783000
O 14.240723 7.801165 4.899889 -1.599592 2.394732 2.547747 1.000000 -21.566000
H 14.046733 8.068640 4.914001 -8.567972 5.110385 -13.833612 0.062500 10.783000
H 14.227552 2.035310 6.821565 -9.796296 11.275185 -12.276204 0.062500 10.783000
O 14.099015 2.113270 7.100532 0.946395 -1.516220 -0.236601 1.000000 -21.566000
H 14.267807 1.918828 7.308484 7.755866 -0.240336 -6.666128 0.062500 10.783000
H 9.009916 12.312784 5.746846 -5.275028 12.881614 11.402366 0.062500 10.783000
O 9.250745 12.088133 5.725085 0.097821 -3.394800 -0.936823 1.000000 -21.566000
H 9.217608 11.973485 5.429517 12.509965 -4.006479 -5.990708 0.062500 10.783000
H 12.161534 5.280270 13.838761 1.635041 -14.037459 7.122200 0.062500 10.783000
O 12.302182 5.021938 13.697809 -1.261153 2.097810 -0.763722 1.000000 -21.566000
H 12.175832 4.750205 13.786793 0.429200 2.281847 7.338790 0.062500 10.783000
H 10.575883 11.417105 6.428889 1.458355 9.277476 -1.889852 0.062500 10.783000
O 10.773797 11.230304 6.626889 -3.954198 -2.282492 4.064736 1.000000 -21.566000
H 11.084908 11.306828 6.603585 0.738837 5.620676 -12.619446 0.062500 10.783000
H 12.216976 5.552204 5.159986 -4.474377 -8.652036 1.774990 0.062500 10.783000
O 12.063882 5.842842 5.123965 -3.423876 -0.066829 4.300057 1.000000 -21.566000
H 12.216033 6.017178 4.898737 -5.277556 14.892665 4.620464 0.062500 10.783000
H 2.955539 11.904299 3.113480 9.461128 7.278247 -3.488125 0.062500 10.783000
O 3.148471 11.696221 3.287378 0.217748 -1.871058 3.766591 1.000000 -21.566000
H 3.002051 11.433921 3.375498 7.797088 6.030971 -4.353263 0.062500 10.783000
H 10.247969 12.943237 14.731223 15.050572 5.960949 -12.205247 0.062500 10.783000
O 10.324864 13.004444 14.440260 0.875929 2.060184 -0.920749 1.000000 -21.566000
H 10.514381 12.794472 14.277529 5.426641 -6.304475 3.947695 0.062500 10.783000
H 7.905970 11.782589 0.279701 -1.996089 -3.206074 -1.689773 0.062500 10.783000
O 7.616198 11.872404 0.386992 1.543249 -0.233392 3.576427 1.000000 -21.566000
H 7.462743 11.584104 0.437607 -3.223334 -5.486315 9.585596 0.062500 10.783000
H 13.621931 10.067528 2.589759 -1.213625 4.934392 -1.279194 0.062500 10.783000
O 13.713176 9.950730 2.856739 -1.616825 -0.120132 3.427107 1.000000 -21.566000
H 13.923205 9.712853 2.817782 14.979649 -0.974633 -2.023500 0.062500 10.783000
H 8.502655 10.664212 3.133635 6.758591 -0.473317 -8.317447 0.062500 10.783000
O 8.565573 10.841149 2.866063 -2.275816 -0.977194 1.890568 1.000000 -21.566000
H 8.457395 10.711026 2.593936 -1.432078 -2.944163 3.535055 0.062500 10.783000
H 7.024435 9.857253 0.177679 4.196176 13.385626 -12.963500 0.062500 10.783000
O 7.193026 10.109679 0.080019 -0.069874 -3.120508 -0.724846 1.000000 -21.566000
H 7.343595 10.075598 14.534142 5.501665 0.149769 -13.026817 0.062500 10.783000
H 12.803710 8.255520 2.827144 -0.038810 -2.026621 2.102765 0.062500 10.783000
O 12.972517 8.058773 2.641063 3.320727 1.000768 -1.174114 1.000000 -21.566000
H 12.930969 8.115703 2.329125 -8.386675 -3.915536 -1.956150 0.062500 10.783000
H 2.834703 12.376219 1.249755 1.854964 -0.145555 -13.137522 0.062500 10.783000
O 2.891217 12.677542 1.314719 2.441586 -0.409124 -4.026616 1.000000 -21.566000
H 2.611517 12.815172 1.421238 3.937766 6.720648 1.551515 0.062500 10.783000
H 8.591373 14.146324 0.632785 6.364734 -9.902166 11.706108 0.062500 10.783000
O 8.864373 14.154355 0.464235 0.550787 2.202727 0.410939 1.000000 -21.566000
H 8.835853 13.953341 0.209795 -17.488796 -7.550748 1.269228 0.062500 10.783000
H 5.842826 10.925423 8.602112 -6.548637 -1.766834 7.483491 0.062500 10.783000
O 6.070549 10.825577 8.377202 1.038345 -0.803968 -3.092430 1.000000 -21.566000
H 5.858310 10.684497 8.187628 4.547103 5.570302 3.450059 0.062500 10.783000
H 10.365716 7.157452 2.347980 -2.658453 11.922934 10.457605 0.062500 10.783000
O 10.240809 6.911533 2.522675 0.115280 -0.160986 -0.098417 1.000000 -21.566000
H 9.937189 6.981987 2.564616 -4.719970 -10.924174 -21.323460 0.062500 10.783000
H 13.593056 11.641623 11.144738 -1.178628 -4.153894 12.230884 0.062500 10.783000
O 13.479061 11.347803 11.119932 -0.648877 -0.391030 2.083548 1.000000 -21.566000
H 13.404816 11.299710 10.805324 10.762593 2.719415 -2.092545 0.062500 10.783000
H 5.514891 12.814582 9.041187 -3.043917 3.409653 3.948811 0.062500 10.783000
O 5.587554 12.539359 8.861800 1.718144 1.130200 1.004330 1.000000 -21.566000
H 5.342053 12.342213 8.822818 -0.530797 13.579242 -2.930941 0.062500 10.783000
H 13.234651 12.558694 3.933166 0.381427 3.016784 6.051379 0.062500 10.783000
O 12.988056 12.733991 3.814491 -2.351447 -0.697749 0.232814 1.000000 -21.566000
H 13.068909 12.793846 3.514578 0.756987 5.348646 7.240924 0.062500 10.783000
H 0.075514 4.726213 2.509240 15.081135 0.314584 -3.733281 0.062500 10.783000
O 0.048423 4.429502 2.383307 0.916902 0.613134 -1.227205 1.000000 -21.566000
H 0.051025 4.229855 2.636196 2.530675 0.688090 -3.349245 0.062500 10.783000
H 13.628939 7.731461 10.980970 6.708766 4.659225 6.498333 0.062500 10.783000
O 13.935433 7.629979 11.007050 0.619507 -0.296624 -0.399320 1.000000 -21.566000
H 13.933454 7.353483 11.198734 4.291878 -4.200527 20.143613 0.062500 10.783000
H 13.070281 0.860680 6.501234 -1.632137 -5.409087 10.560915 0.062500 10.783000
O 13.170352 0.973210 6.783062 -1.184021 0.304586 4.325832 1.000000 -21.566000
H 13.216130 1.277667 6.723067 -5.566356 -10.632395 -3.533087 0.062500 10.783000
H 0.715990 9.274239 4.346764 0.072923 5.605770 5.195118 0.062500 10.783000
O 0.881377 9.125094 4.098030 -2.348385 2.175002 -0.930808 1.000000 -21.566000
H 0.647068 9.063226 3.860585 -9.070304 -0.052588 -24.980658 0.062500 10.783000
H 11.511050 10.830836 14.494501 -12.547012 -7.531544 5.088573 0.062500 10.783000
O 11.537755 11.076120 14.697790 1.534508 -1.561455 -4.138153 1.000000 -21.566000
H 11.469374 10.926154 0.230475 -4.255349 1.179326 -4.647892 0.062500 10.783000
H 7.456923 8.192108 12.992011 12.391631 -5.783847 2.109206 0.062500 10.783000
O 7.669648 8.308698 12.780542 -0.357602 1.114336 -0.952644 1.000000 -21.566000
H 7.795355 8.047491 12.681267 14.738512 2.725274 0.788576 0.062500 10.783000
H 14.585710 13.836936 6.850039 7.513764 -10.875950 12.540794 0.062500 10.783000
O 0.128234 13.790333 6.701333 0.591213 -0.242518 -3.009712 1.000000 -21.566000
H 0.099083 13.726420 6.384981 3.264766 -8.399427 2.928827 0.062500 10.783000
H 6.913168 11.029149 5.939798 0.590540 -1.959654 8.454256 0.062500 10.783000
O 7.225430 11.095825 6.034085 0.660719 0.121605 0.912404 1.000000 -21.566000
H 7.200790 11.371044 6.200710 2.552462 -0.193945 -0.145797 0.062500 10.783000
H 3.224224 14.545325 5.435701 6.261340 -13.959225 5.096377 0.062500 10.783000
O 3.488306 14.683461 5.306201 0.244203 2.250726 1.909758 1.000000 -21.566000
H 3.708231 14.676346 5.559581 0.758877 -8.555889 5.428061 0.062500 10.783000
H 7.132180 7.873634 5.728392 7.883431 4.549589 17.362238 0.062500 10.783000
O 6.923487 8.101321 5.825309 -0.361065 2.500493 2.901708 1.000000 -21.566000
H 6.856509 8.286669 5.578294 1.482200 12.408871 7.047115 0.062500 10.783000
H 5.545157 10.450041 4.116829 2.761083 -0.253233 -0.920789 0.062500 10.783000
O 5.485718 10.526392 4.422073 2.136629 -2.034828 -1.681125 1.000000 -21.566000
H 5.432437 10.844075 4.414302 4.910467 -7.830684 3.882258 0.062500 10.783000
H 13.181178 10.758239 5.925812 8.601054 5.714209 -2.004156 0.062500 10.783000
O 13.038033 11.034413 5.897536 4.012860 0.495675 0.276389 1.000000 -21.566000
H 12.728745 11.005014 5.938783 5.590336 -2.654998 12.673777 0.062500 10.783000
H 12.574456 13.207411 7.608145 0.353359 -0.377978 14.595304 0.062500 10.783000
O 12.398066 13.158776 7.339417 -2.633778 1.497750 0.833867 1.000000 -21.566000
H 12.183656 13.395181 7.344813 -2.829696 -4.121776 1.854447 0.062500 10.783000
H 10.924138 13.397627 0.422761 -3.265183 0.916889 13.414631 0.062500 10.783000
O 10.787098 13.155688 0.584388 -1.032664 -1.263994 0.210729 1.000000 -21.566000
H 10.845585 13.207944 0.905924 -13.515428 1.562655 -6.381940 0.062500 10.783000
H 2.462354 13.411489 1.908313 12.208086 -10.128397 3.694478 0.062500 10.783000
O 2.541265 13.544295 2.193219 2.119560 0.115071 1.440195 1.000000 -21.566000
H 2.848830 13.595991 2.218111 -1.141450 -2.561482 3.302553 0.062500 10.783000
H 14.135334 7.612147 0.602298 -8.118247 3.057987 3.244086 0.062500 10.783000
O 13.996454 7.840855 0.421492 -2.459901 1.495586 -1.023900 1.000000 -21.566000
H 13.693269 7.775290 0.320294 8.851321 -20.423176 -2.783220 0.062500 10.783000
H 14.577963 2.052658 4.872184 -2.891120 -10.945105 15.542120 0.062500 10.783000
O 0.087892 1.924203 4.712795 -2.890779 3.522820 -1.329491 1.000000 -21.566000
H 0.209242 1.651236 4.861161 8.639902 6.392653 -11.141268 0.062500 10.783000
H 6.168667 12.673748 5.340997 11.768265 6.069653 6.193559 0.062500 10.783000
O 6.094702 12.383459 5.226240 0.028924 2.694167 -0.738452 1.000000 -21.566000
H 6.407704 12.296597 5.174849 2.480830 -9.843299 -8.086988 0.062500 10.783000
H 3.414892 11.371768 1.205645 5.735005 -8.742681 -15.072513 0.062500 10.783000
O 3.478774 11.209167 1.474518 -0.112818 -4.989070 0.573783 1.000000 -21.566000
H 3.391417 10.904911 1.443905 -1.320655 -4.166395 5.103805 0.062500 10.783000
H 4.683016 5.979411 8.858252 -6.633383 -3.518331 -1.774872 0.062500 10.783000
O 4.968583 5.896544 8.909313 -1.716351 2.546840 1.369452 1.000000 -21.566000
H 5.063955 5.685787 8.689493 10.806314 -7.081781 2.633157 0.062500 10.783000
H 1.761524 13.733673 11.478512 9.677627 12.141670 8.921852 0.062500 10.783000
O 2.058720 13.584730 11.470738 -2.861015 0.023367 -2.798405 1.000000 -21.566000
H 2.144277 13.629856 11.774897 6.312081 -1.626044 -2.367436 0.062500 10.783000
H 4.670896 11.251942 6.824591 -5.658196 -9.178186 4.848548 0.062500 10.783000
O 4.560043 11.556745 6.835634 0.456353 -0.776149 2.612098 1.000000 -21.566000
H 4.293189 11.580220 6.669979 0.944036 -0.684257 -3.576921 0.062500 10.783000
H 5.685612 11.142818 0.632483 4.718515 4.937135 -2.774392 0.062500 10.783000
O 5.463326 11.104247 0.416540 -3.702307 3.472488 -0.878688 1.000000 -21.566000
H 5.216432 11.153963 0.625700 -2.190452 -4.720544 -4.389552 0.062500 10.783000
H 10.863026 0.652584 12.960806 -7.942159 6.020701 -2.158508 0.062500 10.783000
O 10.914538 0.858895 12.723384 -1.275231 -0.220520 -0.210860 1.000000 -21.566000
H 11.230695 0.948577 12.705924 12.739109 1.077401 8.046257 0.062500 10.783000
H 9.280904 0.842210 8.177995 6.458093 -3.519935 -4.042130 0.062500 10.783000
O 9.370253 1.154424 8.135925 -1.720127 -3.231411 1.293264 1.000000 -21.566000
H 9.667665 1.154530 8.019318 7.044610 8.700010 -3.453354 0.062500 10.783000
H 11.842327 10.269734 14.189010 -10.701315 3.012821 7.832314 0.062500 10.783000
O 11.560264 10.395109 14.155562 -1.986985 2.747273 -1.548830 1.000000 -21.566000
H 11.351478 10.153971 14.199777 4.359602 1.159535 16.116212 0.062500 10.783000
H 9.171086 4.627870 4.964313 13.692137 0.611439 -3.005091 0.062500 10.783000
O 8.867796 4.556203 4.886779 3.232431 -1.523106 6.723178 1.000000 -21.566000
H 8.679638 4.756621 5.060569 -1.585689 -9.001255 19.851508 0.062500 10.783000
H 11.825393 3.498814 7.476836 -12.839434 -4.013323 0.691821 0.062500 10.783000
O 11.876578 3.187814 7.561112 4.244660 -0.678044 -2.603183 1.000000 -21.566000
H 12.119946 3.170747 7.771677 6.785120 -11.021028 0.386479 0.062500 10.783000
H 1.309222 10.436641 3.785751 6.945183 10.228056 6.214868 0.062500 10.783000
O 1.582775 10.246030 3.727606 -0.983811 1.032714 -0.948818 1.000000 -21.566000
H 1.657881 10.331891 3.435239 -5.776843 1.029255 -1.804785 0.062500 10.783000
H 9.682450 9.833556 10.447888 9.015101 -3.384370 -3.477207 0.062500 10.783000
O 9.451626 9.817180 10.207357 0.086675 0.978744 0.593358 1.000000 -21.566000
H 9.143203 9.831176 10.298640 4.830248 4.186890 -7.084734 0.062500 10.783000
H 0.946663 1.641427 8.381663 -12.749255 -7.844785 -3.652807 0.062500 10.783000
O 1.101559 1.697412 8.121873 -3.053849 -2.208416 1.428985 1.000000 -21.566000
H 1.162395 2.016428 8.118322 -9.091052 -10.398827 0.091201 0.062500 10.783000
H 11.271545 10.729502 3.608464 2.032811 -20.771305 -4.836554 0.062500 10.783000
O 11.558283 10.865765 3.641816 -0.457883 2.298851 -1.710345 1.000000 -21.566000
H 11.728304 10.843069 3.366620 -11.456402 -1.387318 5.560200 0.062500 10.783000
H 3.095555 2.216469 13.619278 13.384274 10.881212 -9.787876 0.062500 10.783000
O 2.909912 2.409720 13.782066 -0.777387 -0.262182 3.060419 1.000000 -21.566000
H 3.076696 2.501079 14.055388 -0.053195 7.224042 1.414078 0.062500 10.783000
H 13.817309 11.903486 6.190862 11.621973 14.970606 5.230644 0.062500 10.783000
O 13.827998 12.206840 6.100994 0.112048 -1.414427 -1.450549 1.000000 -21.566000
H 13.519402 12.289081 6.047818 0.411827 11.768994 -0.839921 0.062500 10.783000
H 12.743911 10.003435 12.372695 3.981265 4.948515 -11.863892 0.062500 10.783000
O 12.886760 9.775348 12.189641 -3.604924 -3.021098 -5.675737 1.000000 -21.566000
H 12.966168 9.517075 12.364608 -9.052474 -3.009661 -4.628827 0.062500 10.783000
H 12.278171 0.703780 1.940361 1.783474 10.480063 7.797362 0.062500 10.783000
O 12.497013 0.667343 1.699783 -0.732812 2.956222 -1.566185 1.000000 -21.566000
H 12.445556 0.883896 1.474864 10.172739 -3.066754 11.909183 0.062500 10.783000
H 0.863714 0.255730 9.000269 0.561179 -0.554552 7.922491 0.062500 10.783000
O 0.879610 14.707925 8.862089 -0.124512 -0.604648 2.420743 1.000000 -21.566000
H 0.619097 14.558692 8.942280 5.594772 -7.598777 12.180502 0.062500 10.783000
H 1.495047 12.356315 5.542817 5.805672 -4.481728 -11.806294 0.062500 10.783000
O 1.770728 12.340995 5.709444 -0.204610 0.975299 0.969368 1.000000 -21.566000
H 1.663939 12.256255 6.002996 7.737197 4.406743 9.938358 0.062500 10.783000
H 14.368391 2.572403 14.154623 3.674527 -10.490913 -0.001779 0.062500 10.783000
O 14.075251 2.620283 14.241921 -1.495543 -1.518627 -5.755689 1.000000 -21.566000
H 13.995546 2.906951 14.151484 8.858292 11.177029 10.540908 0.062500 10.783000
H 7.381192 9.763123 3.886200 5.688594 -6.744164 4.379476 0.062500 10.783000
O 7.318968 10.002798 3.664612 -6.449808 1.019739 -3.573497 1.000000 -21.566000
H 7.449665 9.872953 3.382934 5.458379 0.183960 0.886203 0.062500 10.783000
H 9.211847 11.700730 7.628893 8.390361 -2.568154 2.030945 0.062500 10.783000
O 9.332972 11.976516 7.712543 0.493694 -0.186210 3.151090 1.000000 -21.566000
H 9.184922 12.216821 7.573338 7.027345 -16.277798 -7.984413 0.062500 10.783000
H 11.465929 1.485512 3.600193 -4.033245 6.280465 12.572600 0.062500 10.783000
O 11.547481 1.579748 3.300609 -1.988267 -5.101738 -0.049862 1.000000 -21.566000
H 11.791132 1.391214 3.215104 -6.605193 -10.752962 -4.483927 0.062500 10.783000
H 5.530073 11.401178 12.952110 -0.722810 17.903370 -12.033482 0.062500 10.783000
O 5.242471 11.507981 12.980871 -1.668221 -1.253194 1.247685 1.000000 -21.566000
H 5.291531 11.769136 13.136629 -5.559814 -2.002572 -6.265633 0.062500 10.783000
H 5.820424 7.799642 5.427862 -13.029300 7.047097 -6.224193 0.062500 10.783000
O 5.791352 8.000213 5.675521 -3.358721 -0.773789 0.398381 1.000000 -21.566000
H 5.987347 8.252894 5.646270 12.694871 -16.491334 -7.093517 0.062500 10.783000
H 11.997293 3.655453 4.264841 -3.311155 3.766030 7.906930 0.062500 10.783000
O 11.810428 3.455800 4.104781 1.666449 -1.108518 0.979029 1.000000 -21.566000
H 11.647440 3.276944 4.319841 -6.473798 -3.472954 -14.712680 0.062500 10.783000
H 2.826883 12.666616 6.387315 4.868779 -10.085924 7.952775 0.062500 10.783000
O 2.652570 12.479337 6.580851 -2.194758 -2.429705 -1.920418 1.000000 -21.566000
H 2.440915 12.699452 6.692040 1.410500 -4.591815 -4.814284 0.062500 10.783000
H 7.952097 13.920919 0.655208 6.054520 4.814757 3.234494 0.062500 10.783000
O 7.850356 13.647893 0.516893 3.467474 0.552360 0.433580 1.000000 -21.566000
H 7.563213 13.569127 0.652734 0.102748 6.522021 -4.561686 0.062500 10.783000
H 7.681556 2.406358 0.815853 9.483823 -10.346805 12.298024 0.062500 10.783000
O 7.589766 2.495744 1.114751 -3.113405 3.938292 0.201004 1.000000 -21.566000
H 7.649066 2.816731 1.071922 3.928643 11.974831 -2.830599 0.062500 10.783000
H 1.961621 2.106752 2.755398 21.823490 18.557807 16.520545 0.062500 10.783000
O 1.995510 1.943507 3.021213 0.324556 -2.092027 -0.782668 1.000000 -21.566000
H 1.796771 2.054334 3.225236 4.459434 2.299954 2.004272 0.062500 10.783000
H 0.750396 4.809010 2.036347 -0.771602 1.173512 4.260727 0.062500 10.783000
O 0.835217 4.495377 2.071223 0.315780 2.564582 -4.082112 1.000000 -21.566000
H 0.568731 4.360109 2.187453 5.286079 17.324955 -1.305700 0.062500 10.783000
H 4.470518 12.358867 12.425497 -10.665091 -7.249320 8.987914 0.062500 10.783000
O 4.210727 12.273605 12.590110 0.671234 1.316068 -0.065383 1.000000 -21.566000
H 4.202298 11.959753 12.536509 3.280115 -4.848935 18.778487 0.062500 10.783000
H 3.010047 4.521871 4.025730 -3.587185 -7.114852 -0.207635 0.062500 10.783000
O 3.167476 4.276956 3.888959 3.232555 -0.343783 0.008240 1.000000 -21.566000
H 3.064430 4.006755 4.038158 12.070438 -4.055147 -2.436088 0.062500 10.783000
H 4.909600 14.155244 4.885865 -14.844753 -13.563277 -7.990454 0.062500 10.783000
O 4.682272 14.173646 5.106844 -2.407467 5.108575 -2.678938 1.000000 -21.566000
H 4.848690 14.226202 5.395018 3.338530 10.130373 1.024720 0.062500 10.783000
H 2.025076 11.577593 3.349792 -8.272122 -4.005716 -21.192380 0.062500 10.783000
O 1.917859 11.875872 3.452577 0.840080 1.053246 -3.763672 1.000000 -21.566000
H 2.112411 12.067901 3.627318 1.634974 3.706385 -4.159905 0.062500 10.783000
H 7.765856 11.736708 10.410754 -10.218373 0.227292 17.975443 0.062500 10.783000
O 8.070359 11.868684 10.410423 -3.834417 1.218017 -0.886943 1.000000 -21.566000
H 8.186448 11.839933 10.107773 8.838940 -11.751257 -2.608019 0.062500 10.783000
H 9.159714 2.028830 14.083654 5.332060 2.274953 -5.044938 0.062500 10.783000
O 9.278299 2.166924 14.347552 0.958373 2.286439 0.106929 1.000000 -21.566000
H 9.593981 2.161623 14.270537 4.804410 -7.724489 1.188072 0.062500 10.783000
H 12.209015 0.861734 3.079593 2.925205 -24.921159 -5.007323 0.062500 10.783000
O 11.881368 0.816734 3.103767 1.722663 0.599444 1.009360 1.000000 -21.566000
H 11.828602 0.579689 3.303469 11.481539 -9.181766 9.402417 0.062500 10.783000
H 10.770757 13.194413 11.787958 -5.641623 -3.065170 -2.529351 0.062500 10.783000
O 11.022001 13.031186 11.922414 1.100019 0.957075 4.583057 1.000000 -21.566000
H 11.188677 12.957445 11.653524 3.050389 13.988414 6.934709 0.062500 10.783000
H 1.571862 13.062934 1.603339 0.433555 6.134523 -5.419524 0.062500 10.783000
O 1.490877 12.932014 1.889682 -0.216313 0.353753 0.652463 1.000000 -21.566000
H 1.199774 12.881783 1.959131 0.168395 -7.865285 -8.037733 0.062500 10.783000
H 13.946186 3.171784 9.181700 -8.675428 4.302528 1.224282 0.062500 10.783000
O 14.180936 3.252016 8.974661 -1.729549 -2.676224 0.568770 1.000000 -21.566000
H 14.204350 3.563147 8.987613 7.480134 -18.816450 2.183458 0.062500 10.783000
H 2.009107 8.098835 1.351714 -4.982097 -11.058994 -2.465555 0.062500 10.783000
O 2.100967 8.386572 1.477344 -2.817068 1.521456 3.756026 1.000000 -21.566000
H 2.163673 8.594908 1.243797 22.026512 6.738843 -8.521352 0.062500 10.783000
H 2.802125 2.970101 14.509386 17.343303 1.987835 9.186110 0.062500 10.783000
O 2.687653 3.263118 14.584443 3.620933 0.723574 0.047145 1.000000 -21.566000
H 2.689313 3.240034 0.151787 12.786883 4.074756 -4.051774 0.062500 10.783000
H 8.019029 13.843093 1.827655 1.574840 -17.179218 4.825758 0.062500 10.783000
O 8.236759 14.056871 1.959491 0.169645 -0.129531 0.080562 1.000000 -21.566000
H 8.062439 14.312480 2.079743 1.835864 1.677165 -0.179530 0.062500 10.783000
H 3.184654 1.731433 14.685783 1.838057 -5.189970 -5.539271 0.062500 10.783000
O 3.001680 1.527413 14.544154 -3.116226 1.985973 -0.082356 1.000000 -21.566000
H 3.167801 1.272634 14.439138 3.648353 -10.714305 -2.616746 0.062500 10.783000
H 8.984761 13.918159 3.922925 -1.740110 -10.492813 6.552108 0.062500 10.783000
O 9.267835 13.761470 3.858508 1.079020 -1.322503 -0.459105 1.000000 -21.566000
H 9.151318 13.520753 3.662342 -14.860036 -4.845763 -8.622524 0.062500 10.783000
H 6.017955 4.557037 10.201581 2.176736 8.719692 3.697231 0.062500 10.783000
O 5.770887 4.630937 10.393166 -0.311067 0.757513 2.699037 1.000000 -21.566000
H 5.686007 4.940799 10.427085 2.109223 -6.159009 5.387310 0.062500 10.783000
H 0.022230 4.123292 0.774473 -1.145303 15.038597 -5.626226 0.062500 10.783000
O 0.176875 4.073864 1.060347 0.928936 -0.488196 1.046112 1.000000 -21.566000
H 14.731815 3.977888 1.311040 12.393673 -11.813039 3.690968 0.062500 10.783000
H 4.545173 1.481121 0.054864 -6.247508 -9.367868 -8.476116 0.062500 10.783000
O 4.316142 1.554298 14.590028 -4.361827 1.628987 3.181022 1.000000 -21.566000
H 4.057268 1.711396 14.703708 -9.998752 -8.506975 6.000167 0.062500 10.783000
H 5.478042 9.637393 13.786373 -6.808389 2.349863 2.812528 0.062500 10.783000
O 5.284295 9.383759 13.782728 -2.750160 -0.024604 2.169407 1.000000 -21.566000
H 5.148849 9.393276 13.482084 -15.633168 -3.480092 -1.895713 0.062500 10.783000
H 12.578953 3.301316 2.574732 21.341720 -5.711600 -7.490239 0.062500 10.783000
O 12.609416 3.085370 2.332110 2.772939 -1.955391 3.081223 1.000000 -21.566000
H 12.538115 2.774485 2.376284 -3.947142 -3.334548 -8.051719 0.062500 10.783000
H 8.104561 10.320483 8.052031 8.286673 -0.508044 -5.477778 0.062500 10.783000
O 8.133265 10.007614 7.973686 1.843571 0.426095 -0.454051 1.000000 -21.566000
H 7.841182 9.878715 8.000519 -6.138784 1.626221 4.929006 0.062500 10.783000
H 12.737666 14.440286 13.715652 5.603723 10.689322 -1.788939 0.062500 10.783000
O 12.499980 14.217772 13.765798 4.196193 -3.765887 -1.173438 1.000000 -21.566000
H 12.396419 14.216664 14.070814 8.262256 0.781785 -7.424687 0.062500 10.783000
H 10.131780 13.705227 6.935331 4.003850 2.522881 -2.660740 0.062500 10.783000
O 10.375943 13.608354 7.110860 0.530329 -2.391116 -0.732332 1.000000 -21.566000
H 10.387513 13.286524 7.098606 -0.026339 6.269287 8.313043 0.062500 10.783000
H 11.559945 5.233369 2.311177 8.786821 -1.237792 -5.862396 0.062500 10.783000
O 11.681765 5.393843 2.563593 -0.061700 -0.048874 0.501142 1.000000 -21.566000
H 11.927152 5.252431 2.720744 3.722901 -0.284256 -15.154967 0.062500 10.783000
H 9.832475 10.247269 8.349693 4.408030 4.160940 -0.304644 0.062500 10.783000
O 9.659070 10.409989 8.132226 -2.163628 1.107800 -2.490428 1.000000 -21.566000
H 9.395003 10.228132 8.153722 -10.242569 -2.442234 -1.752390 0.062500 10.783000
H 4.595687 5.560093 4.960711 -9.119289 -2.978109 -0.402602 0.062500 10.783000
O 4.555226 5.482254 5.263079 1.352799 -2.214105 2.324958 1.000000 -21.566000
H 4.384274 5.712768 5.410723 9.824143 1.838980 -4.105327 0.062500 10.783000
H 11.058908 0.644309 1.154805 10.418563 0.052311 1.160594 0.062500 10.783000
O 10.800190 0.592674 0.959191 0.112123 0.473475 5.340774 1.000000 -21.566000
H 10.559916 0.811958 0.951133 0.633648 3.935886 -14.857410 0.062500 10.783000
H 4.889953 12.375420 1.869095 -6.561272 3.417928 8.394101 0.062500 10.783000
O 5.203261 12.275696 1.842511 0.727062 4.282965 -0.685599 1.000000 -21.566000
H 5.381699 12.463893 2.050084 0.940256 0.150991 2.830405 0.062500 10.783000
H 8.906599 11.959311 2.369107 -10.497405 -12.550221 9.292278 0.062500 10.783000
O 8.693348 12.198220 2.403326 -2.483002 1.094175 0.668438 1.000000 -21.566000
H 8.831918 12.436739 2.248990 -0.418760 8.036869 -0.400153 0.062500 10.783000
H 12.733384 11.140953 4.227739 9.838001 -0.724909 3.148237 0.062500 10.783000
O 12.625960 10.900244 4.416099 -1.733266 0.918854 2.020447 1.000000 -21.566000
H 12.910117 10.808900 4.537703 4.037242 -8.449429 -10.241607 0.062500 10.783000
H 4.365910 7.913116 2.818104 2.930583 5.274457 -6.830467 0.062500 10.783000
O 4.176049 7.893718 2.549102 -0.503640 3.884552 1.254464 1.000000 -21.566000
H 4.014017 8.175360 2.560910 -9.432757 -2.918478 16.414147 0.062500 10.783000
H 5.489860 2.361258 8.936689 -4.843862 -20.416728 15.088857 0.062500 10.783000
O 5.708885 2.385045 8.701141 -1.473022 0.359511 -0.892580 1.000000 -21.566000
H 5.965491 2.538180 8.821761 4.937106 6.986282 10.484289 0.062500 10.783000
H 6.512314 1.221916 3.443428 -6.044364 -2.236028 -7.543326 0.062500 10.783000
O 6.804114 1.079091 3.446407 -0.147296 -1.383315 -0.750043 1.000000 -21.566000
H 7.022369 1.319747 3.486520 1.575692 8.994164 -9.774397 0.062500 10.783000
H 10.652087 3.097875 5.687580 -4.969399 6.693693 -4.937690 0.062500 10.783000
O 10.688054 3.409258 5.725259 1.162948 -0.136521 0.113767 1.000000 -21.566000
H 10.674450 3.506487 6.021383 18.329088 5.963578 -5.609620 0.062500 10.783000
H 12.989840 3.358340 0.253085 -2.278037 -2.106528 -3.109369 0.062500 10.783000
O 12.993619 3.553865 14.738788 -2.403905 -3.735380 -2.090592 1.000000 -21.566000
H 12.683814 3.611785 14.688924 -4.575947 15.074131 -20.354102 0.062500 10.783000
H 11.040071 4.987454 4.135245 -3.091878 1.590283 -0.621013 0.062500 10.783000
O 11.003230 5.288505 4.041295 2.783814 -2.953371 -1.715320 1.000000 -21.566000
H 11.160068 5.358374 3.757365 4.281546 4.963730 2.464327 0.062500 10.783000
H 7.420637 10.811523 0.831648 -11.219692 -6.508441 14.108337 0.062500 10.783000
O 7.649299 10.671389 0.627928 -1.350661 -3.581040 -3.909485 1.000000 -21.566000
H 7.502128 10.458976 0.432622 0.773607 -10.635916 -6.283843 0.062500 10.783000
H 9.206144 8.347883 3.569144 -22.894711 -5.854038 13.705808 0.062500 10.783000
O 9.150726 8.329790 3.245608 1.531927 2.341186 -0.119684 1.000000 -21.566000
H 9.408998 8.319355 3.050495 -6.036946 6.916289 -8.376430 0.062500 10.783000
H 10.715566 5.847320 6.364237 -8.675235 3.091879 -12.523672 0.062500 10.783000
O 10.918171 6.099498 6.398068 -2.348133 0.745272 3.415255 1.000000 -21.566000
H 10.833242 6.313462 6.175153 -16.022096 -10.331311 -0.146709 0.062500 10.783000
H 11.719966 1.533308 5.152040 -14.783880 10.569873 -1.678689 0.062500 10.783000
O 11.677540 1.475052 4.839526 0.249433 1.885863 1.739577 1.000000 -21.566000
H 11.601183 1.171354 4.802747 -8.824238 0.763465 5.308938 0.062500 10.783000
H 6.612040 14.175560 6.613486 -5.580008 3.567703 1.047817 0.062500 10.783000
O 6.861898 13.989867 6.530898 1.595088 1.957682 -0.174010 1.000000 -21.566000
H 6.747481 13.714286 6.622213 -8.877036 -0.619236 -13.664703 0.062500 10.783000
H 6.669894 11.642103 0.568406 -2.884400 -15.300757 5.489934 0.062500 10.783000
O 6.452035 11.854034 0.664196 -1.187899 2.212809 3.410411 1.000000 -21.566000
H 6.307013 11.941700 0.383300 -0.782214 -3.643451 -4.416193 0.062500 10.783000
H 4.387557 11.300090 2.331386 -1.705930 -1.067670 -4.344260 0.062500 10.783000
O 4.070793 11.248300 2.345602 -2.726751 0.869532 -3.184245 1.000000 -21.566000
H 3.896359 11.434270 2.139739 3.926977 16.907311 7.181610 0.062500 10.783000
H 5.283810 1.808413 3.799364 4.529799 -3.500251 -1.204189 0.062500 10.783000
O 5.369685 1.524075 3.925815 0.568899 1.280740 -1.665973 1.000000 -21.566000
H 5.541849 1.624815 4.199173 -6.702818 -15.000253 15.490349 0.062500 10.783000
H 5.300046 13.553650 9.027261 1.024055 1.789300 2.353491 0.062500 10.783000
O 5.448115 13.316911 9.166315 -0.399463 -1.533153 2.830583 1.000000 -21.566000
H 5.504270 13.358886 9.472833 -10.800110 -1.152265 -5.297909 0.062500 10.783000
H 0.962738 2.556190 1.291295 -10.129703 15.766739 -7.124541 0.062500 10.783000
O 0.729338 2.668047 1.122919 -0.835998 -0.344248 -0.644640 1.000000 -21.566000
H 0.835237 2.723808 0.825078 4.540890 -4.721912 -5.779740 0.062500 10.783000
H 3.348804 0.393559 1.463403 1.828972 0.133846 -5.373354 0.062500 10.783000
O 3.550567 0.166039 1.579617 0.307052 3.123710 0.638797 1.000000 -21.566000
H 3.791544 0.328884 1.726202 -4.938378 -0.062156 14.326695 0.062500 10.783000
H 6.408973 0.909124 5.418447 0.292031 2.265023 -7.271124 0.062500 10.783000
O 6.514082 0.953083 5.721893 -0.461552 -5.807167 0.637150 1.000000 -21.566000
H 6.789680 0.782660 5.745004 3.615439 1.369540 -2.359055 0.062500 10.783000
H 10.159090 8.339794 14.394369 -6.824679 -3.732355 6.721708 0.062500 10.783000
O 10.177591 8.022795 14.332356 2.520264 -0.142561 -1.988698 1.000000 -21.566000
H 9.904126 7.908007 14.445708 0.857101 2.617482 0.567873 0.062500 10.783000
H 7.104770 3.920551 12.574591 1.038859 -8.870894 -6.094561 0.062500 10.783000
O 6.982808 3.631634 12.661210 -0.069976 -2.393319 -0.718392 1.000000 -21.566000
H 6.784859 3.607396 12.420958 -7.075902 4.746752 4.754794 0.062500 10.783000
H 14.530770 1.406313 12.682402 -4.690923 2.943865 3.145988 0.062500 10.783000
O 14.463097 1.114589 12.570835 -0.807398 2.037937 1.669112 1.000000 -21.566000
H 14.156053 1.138208 12.457118 3.927513 -1.297031 11.460567 0.062500 10.783000
H 7.546778 4.682325 14.153721 18.515104 3.840886 9.612542 0.062500 10.783000
O 7.555391 4.389495 14.287211 -0.440538 -0.574777 3.587925 1.000000 -21.566000
H 7.577351 4.147346 14.061000 -5.095983 8.292438 8.258613 0.062500 10.783000
H 14.384877 4.836185 1.269292 7.907574 -1.920899 11.362359 0.062500 10.783000
O 14.146377 4.974885 1.414316 -4.214951 1.837747 -0.181845 1.000000 -21.566000
H 14.040592 4.781155 1.630767 -4.820922 -2.065239 -10.086523 0.062500 10.783000
H 14.128728 2.703863 6.888220 -12.815405 -9.720246 -11.285545 0.062500 10.783000
O 14.077772 3.027636 6.845007 1.994782 -0.578873 -2.405306 1.000000 -21.566000
H 13.766371 3.083260 6.783951 7.977920 -7.558120 4.320851 0.062500 10.783000
H 6.279631 1.135329 14.241533 14.023646 3.660563 3.365208 0.062500 10.783000
O 5.985768 1.261727 14.211527 0.269133 2.078595 4.012113 1.000000 -21.566000
H 5.961287 1.374465 13.904892 6.272909 6.834335 -5.055897 0.062500 10.783000
H 2.325209 3.054560 6.278785 -3.028166 1.103060 -4.613921 0.062500 10.783000
O 2.058952 2.872982 6.249948 2.782284 4.108768 1.407800 1.000000 -21.566000
H 1.888650 2.965169 6.504582 -1.052488 -3.244110 11.341412 0.062500 10.783000
H 2.486040 2.711897 3.971971 -5.946293 11.414255 3.019888 0.062500 10.783000
O 2.546286 2.756886 4.276442 -0.961354 -0.022791 3.460746 1.000000 -21.566000
H 2.483132 2.498408 4.449869 -3.411570 3.804485 13.604164 0.062500 10.783000
H 8.426677 11.255529 8.584191 9.392524 -10.759858 -0.996284 0.062500 10.783000
O 8.583023 11.516766 8.685225 -0.836282 1.091328 -3.182040 1.000000 -21.566000
H 8.859079 11.518789 8.543216 -16.317043 5.868440 2.540714 0.062500 10.783000
H 9.676934 3.045390 14.305958 5.919741 -7.031776 5.576838 0.062500 10.783000
O 9.830652 3.071796 14.033710 2.248719 -2.536914 0.416557 1.000000 -21.566000
H 9.825979 2.769466 13.907593 13.964056 -2.984705 0.538048 0.062500 10.783000
H 10.509899 5.431937 4.063776 11.590250 8.218105 2.396976 0.062500 10.783000
O 10.206241 5.550169 4.092311 3.711944 2.445255 -2.045523 1.000000 -21.566000
H 10.085462 5.437341 4.364550 24.863826 11.619693 -8.448175 0.062500 10.783000
H 5.676230 1.612764 6.561840 1.500762 -3.115702 -2.055970 0.062500 10.783000
O 5.913331 1.745348 6.739153 2.722102 -5.296001 -1.810539 1.000000 -21.566000
H 6.190476 1.782250 6.540239 7.248270 7.985345 -3.439838 0.062500 10.783000
H 8.512922 8.298983 13.709398 0.043182 0.918148 2.125928 0.062500 10.783000
O 8.413971 8.160471 13.443108 -1.505768 -2.140578 0.273887 1.000000 -21.566000
H 8.256873 8.396781 13.318314 -9.032202 1.120125 3.449179 0.062500 10.783000
H 7.970892 12.361537 5.680014 -4.416469 -0.991741 -4.363268 0.062500 10.783000
O 7.738264 12.583921 5.734350 -1.829775 1.202419 0.693052 1.000000 -21.566000
H 7.843799 12.875113 5.655783 -1.318190 9.942138 4.193419 0.062500 10.783000
H 8.008250 0.858634 1.936354 -7.799463 -7.841829 -2.521669 0.062500 10.783000
O 8.220980 1.018879 2.122165 -2.586316 -0.113314 -0.680695 1.000000 -21.566000
H 8.514125 0.883602 2.029581 -1.182357 -3.894541 4.265022 0.062500 10.783000
H 11.935754 8.204586 1.334390 -16.319161 -4.592541 -2.067394 0.062500 10.783000
O 11.700926 8.071326 1.169656 -0.503315 -1.136050 2.207521 1.000000 -21.566000
H 11.724743 8.265964 0.922495 -2.573583 -5.534496 12.657458 0.062500 10.783000
H 7.428020 0.606425 6.909620 -2.385822 -10.687229 10.533606 0.062500 10.783000
O 7.148584 0.437049 6.881280 -1.549925 -1.563738 -1.634341 1.000000 -21.566000
H 6.911125 0.649982 6.944062 -3.272712 2.868423 0.756215 0.062500 10.783000
H 13.690979 3.354906 8.140391 -1.356446 0.718995 -1.990774 0.062500 10.783000
O 13.782185 3.233102 7.866874 2.966741 -1.989318 -2.560908 1.000000 -21.566000
H 13.976226 3.444482 7.714719 10.798462 5.280736 8.509690 0.062500 10.783000
H 8.561603 2.111613 8.550722 -2.402723 -5.507778 7.687635 0.062500 10.783000
O 8.343747 1.958407 8.725877 -1.948315 -0.184031 -2.503161 1.000000 -21.566000
H 8.380307 2.120460 8.998004 -6.166143 4.796606 0.953944 0.062500 10.783000
H 11.841245 4.943618 3.628940 -10.029045 5.238889 5.625360 0.062500 10.783000
O 12.041517 4.691085 3.661721 1.702577 1.067890 -1.594382 1.000000 -21.566000
H 12.180715 4.706911 3.956729 5.990037 0.237277 8.943601 0.062500 10.783000
H 0.413529 3.045502 1.545622 2.375757 12.125062 3.156421 0.062500 10.783000
O 0.236766 3.077211 1.807043 0.599959 -1.386497 -0.604133 1.000000 -21.566000
H 0.390143 2.909831 2.052103 7.658631 -1.125552 -0.390320 0.062500 10.783000
H 0.156799 6.384153 3.478277 -0.834427 -0.905071 10.728234 0.062500 10.783000
O 0.106274 6.492295 3.178526 0.627520 -3.068698 -0.114486 1.000000 -21.566000
H 0.257107 6.320813 2.956238 -1.052015 5.835957 7.322099 0.062500 10.783000
H 11.801303 8.256106 3.997172 -3.901687 0.653169 5.015409 0.062500 10.783000
O 11.758989 8.038720 4.217039 -0.999604 -1.267521 -0.388916 1.000000 -21.566000
H 11.480306 7.870356 4.176834 -3.167290 0.070486 10.192268 0.062500 10.783000
H 2.953972 1.944639 5.682338 4.373120 0.184897 1.584162 0.062500 10.783000
O 3.135641 1.939796 5.425895 1.290174 -3.939333 1.819540 1.000000 -21.566000
H 3.258948 2.234899 5.408387 -12.702896 -18.246832 3.707050 0.062500 10.783000
H 4.419715 2.023202 3.883670 -0.351498 3.777551 -6.078283 0.062500 10.783000
O 4.278886 2.054452 3.592578 0.258219 -0.912284 -1.208943 1.000000 -21.566000
H 3.961872 2.020721 3.622701 4.436292 4.087961 -15.610387 0.062500 10.783000
H 2.930012 11.115365 6.246863 -0.673593 5.377731 4.196741 0.062500 10.783000
O 3.131825 10.869072 6.260596 0.179081 -1.223417 -3.973529 1.000000 -21.566000
H 3.064919 10.664805 6.490773 -21.718391 6.972647 -0.757585 0.062500 10.783000
